  49
        -77.98770747
 C          7.8636576577       -0.9624252219        1.0299253078
 C          7.1580599452        0.3225747946        0.6170007362
 C          6.3930126087        0.1498097221       -0.6932673529
 C          5.6307353533        1.4216143343       -1.0720510791
 O          4.6543537333        1.7817511017       -0.1152013313
 C          3.4953056151        1.0807525829       -0.0311647692
 C          2.6601872737        1.4322402040        1.0331022286
 C          1.4512018078        0.8007884302        1.2212750259
 C          1.0493551942       -0.1941869938        0.3383360705
 N         -0.1979718255       -0.8492140787        0.5210793008
 C         -0.3530756743       -2.2246383880        0.4195244382
 O          0.5452250343       -3.0115937447        0.3034185326
 C         -1.8331917993       -2.5225544014        0.4851218778
 C         -2.4707032655       -1.2267849632        0.9930436356
 N         -3.8031549854       -0.9675544869        0.5095932934
 C         -4.6836555541       -0.2223800573        1.3747423040
 C         -4.5505167210        1.3062729501        1.3773612330
 Cl        -5.4305241874        2.0426367327        0.0071616559
 C         -4.0381613056       -0.8538865261       -0.9106618822
 C         -3.2459764463        0.2098751443       -1.6807844895
 Cl        -1.6582727525       -0.4154962638       -2.2060843117
 C         -1.3751411286       -0.1744260489        0.7430844902
 O         -1.4947051295        1.0238183886        0.8043932190
 C          1.8617990987       -0.5424434441       -0.7282746097
 C          3.0804246037        0.0851059856       -0.9114853625
 H          8.5727615516       -1.2717236177        0.2647833058
 H          7.1431958909       -1.7647890554        1.1732103946
 H          8.4053427906       -0.8177329936        1.9614355614
 H          6.4569968817        0.6232991206        1.3979142066
 H          7.8924868827        1.1231475345        0.5028406256
 H          7.0863541534       -0.0904059542       -1.5017999163
 H          5.6910228302       -0.6798696134       -0.5889694844
 H          5.1809909491        1.3249630661       -2.0679310112
 H          6.3178859088        2.2726155772       -1.0870061408
 H          2.9884006246        2.2099293932        1.7041348689
 H          0.8159041742        1.0806930755        2.0465744707
 H         -2.1646274050       -2.7569744045       -0.5265705706
 H         -2.0317962879       -3.3888807964        1.1132875253
 H         -2.5466666738       -1.2825232617        2.0884960279
 H         -4.5092968537       -0.5664796855        2.3988355951
 H         -5.7128200634       -0.4849118198        1.1096047384
 H         -4.9975728521        1.7221829409        2.2795712100
 H         -3.5078693520        1.6141265897        1.2985744391
 H         -3.8585733606       -1.8260425143       -1.3839843592
 H         -5.0985842976       -0.6256464866       -1.0331502745
 H         -3.0500358415        1.0952983003       -1.0805596947
 H         -3.7771222303        0.4899321614       -2.5894434747
 H          1.5446221643       -1.3088885562       -1.4174993984
 H          3.6880195620       -0.2080932018       -1.7524407649
  49
        -77.98760913
 C          5.8917630107        2.9647903946       -2.2127028233
 C          6.0569607105        2.1993269561       -0.9064145347
 C          5.8670404470        0.6970660337       -1.1045783218
 C          5.9709429360       -0.0627911331        0.2197674935
 O          4.9774588851        0.3185924298        1.1503639100
 C          3.6985321421       -0.1066871889        0.9914157515
 C          3.2569209091       -1.0231604235        0.0409300027
 C          1.9247598591       -1.3917710255       -0.0045153093
 C          1.0203734418       -0.8586083039        0.8992999490
 N         -0.3467617724       -1.2408362032        0.8430173913
 C         -0.7601748712       -2.5573088742        0.6920575702
 O         -0.0365492312       -3.5138020209        0.7218379111
 C         -2.2579805776       -2.5445606488        0.4907177619
 C         -2.6955679287       -1.1358063850        0.8995329565
 N         -3.8404894024       -0.6193488348        0.1932211676
 C         -4.6885847475        0.3063180161        0.9023193636
 C         -4.2482480092        1.7752714562        0.9552419509
 Cl        -4.7039878324        2.6497624975       -0.5352909269
 C         -3.7937802910       -0.4882359082       -1.2440330671
 C         -2.6789706763        0.3772580062       -1.8442661699
 Cl        -1.1844596727       -0.5675274261       -2.0922459794
 C         -1.3810867339       -0.3352437791        0.8640795448
 O         -1.2617374716        0.8632847969        0.9220365775
 C          1.4501903550        0.0551340635        1.8540901108
 C          2.7749152140        0.4281807384        1.8939350982
 H          4.8955528488        2.8116340213       -2.6219668437
 H          6.6195734746        2.6277058498       -2.9480039891
 H          6.0354956245        4.0302591299       -2.0509879791
 H          7.0521291404        2.3857302980       -0.4963309425
 H          5.3252821764        2.5543535824       -0.1782476362
 H          4.8877479022        0.5178119537       -1.5528617010
 H          6.6287253555        0.3105382217       -1.7847535304
 H          6.9132815924        0.1883199579        0.7152842080
 H          5.9487719794       -1.1464717254        0.0510203112
 H          3.9359343616       -1.4620638001       -0.6722867902
 H          1.5896521264       -2.0991816585       -0.7462725818
 H         -2.4474764926       -2.7270375519       -0.5671645772
 H         -2.7369788090       -3.3389932119        1.0599071303
 H         -2.9725805024       -1.1526433835        1.9633956911
 H         -4.7715591409       -0.0464260535        1.9349344107
 H         -5.6864550435        0.2545492668        0.4550781423
 H         -4.7523676960        2.2909173314        1.7718384442
 H         -3.1674093265        1.8619469228        1.0665108493
 H         -3.7351584525       -1.4857039481       -1.6946199237
 H         -4.7471429160       -0.0517763965       -1.5477582391
 H         -2.4157168391        1.2157213699       -1.2037211631
 H         -2.9737130898        0.7417105322       -2.8273740304
 H          0.7472170758        0.4761372329        2.5552521075
 H          3.1284648080        1.1357208748        2.6268456697
  49
        -77.98746532
 C          8.3124555495       -1.2726352170       -0.4104735599
 C          7.5378160638       -0.0629149036       -0.9184994712
 C          6.4017680550        0.3130331698        0.0285291633
 C          5.6302731300        1.5344221893       -0.4750403049
 O          4.5777247186        1.9095531085        0.3906646612
 C          3.4255341236        1.1919454100        0.4075008286
 C          2.4884427856        1.5875538996        1.3660188935
 C          1.2768027671        0.9431821521        1.4778521022
 C          0.9747573089       -0.1092033335        0.6220189663
 N         -0.2739485285       -0.7785717568        0.7266843322
 C         -0.3974020991       -2.1605170123        0.6911470647
 O          0.5199326326       -2.9339074888        0.7022301211
 C         -1.8723919497       -2.4853612237        0.6395707739
 C         -2.5741484615       -1.1768446038        1.0118752082
 N         -3.8607715877       -0.9734565303        0.3957397068
 C         -4.8285782242       -0.1998374014        1.1331850803
 C         -4.7209201477        1.3290089265        1.0592026361
 Cl        -5.4837362662        1.9682236838       -0.4252032071
 C         -3.9666739409       -0.9447412224       -1.0441295407
 C         -3.1245735348        0.0907445335       -1.7996393561
 Cl        -1.4857668447       -0.5292840268       -2.1424483037
 C         -1.4771122364       -0.1173360976        0.8016397609
 O         -1.6210208035        1.0796375924        0.7822041435
 C          1.8896127333       -0.5021913781       -0.3410238352
 C          3.1107433608        0.1382692139       -0.4462659629
 H          7.6547953014       -2.1334919524       -0.3136830502
 H          8.7481880460       -1.0640566347        0.5639080071
 H          9.1147925038       -1.5287065768       -1.0980507967
 H          8.2161219495        0.7865517960       -1.0248475228
 H          7.1275999317       -0.2836068621       -1.9068667813
 H          5.7185457618       -0.5318557511        0.1372169062
 H          6.8036092696        0.5403106569        1.0179505779
 H          5.2570273650        1.3663298594       -1.4929264031
 H          6.2903658139        2.4065385361       -0.4949709026
 H          2.7403948618        2.4091185928        2.0172867741
 H          0.5622587807        1.2575372402        2.2219322002
 H         -2.1060857163       -2.7831323842       -0.3826880029
 H         -2.1138809469       -3.3190482473        1.2962126990
 H         -2.7490338908       -1.1724654627        2.0973356617
 H         -4.7429235361       -0.4819389556        2.1870588044
 H         -5.8248399178       -0.4987947857        0.7917697046
 H         -5.2552500846        1.7853917395        1.8917130299
 H         -3.6805494550        1.6541334196        1.0571512057
 H         -3.7288966908       -1.9378941846       -1.4422502268
 H         -5.0149760792       -0.7462917248       -1.2750082163
 H         -2.9982668674        1.0122500662       -1.2361887901
 H         -3.5749452400        0.3082131791       -2.7671491215
 H          1.6508376983       -1.3140973633       -1.0094210987
 H          3.7998461784       -0.1930485045       -1.2061350694
  49
        -77.98742271
 C          7.8084999463       -0.4346521333        1.6422830293
 C          7.1711224395        0.2868601581        0.4621335965
 C          6.1556240803        1.3315356152        0.9198426615
 C          5.4744422601        2.0121358184       -0.2696817209
 O          4.7432390034        1.1080306803       -1.0730517419
 C          3.5461881841        0.6326686228       -0.6454808732
 C          2.8628030753        1.0523921774        0.4921690281
 C          1.6341849105        0.5005010271        0.8086599023
 C          1.0719305429       -0.4691163188       -0.0049508400
 N         -0.1964293064       -1.0222203933        0.3170028027
 C         -0.4696399765       -2.3819370338        0.2529967235
 O          0.3477479720       -3.2397462383        0.0655298186
 C         -1.9554918697       -2.5580941939        0.4653140985
 C         -2.4334107921       -1.2127719775        1.0175286150
 N         -3.7829238273       -0.8495069199        0.6667589157
 C         -4.5097439408       -0.0324239207        1.6063433440
 C         -4.2549039168        1.4804959819        1.5774365529
 Cl        -5.2080009499        2.2810577933        0.2948856400
 C         -4.1504510333       -0.7241653414       -0.7241464549
 C         -3.3581831176        0.2691401425       -1.5830228747
 Cl        -1.8840009996       -0.4830376256       -2.2544212805
 C         -1.2879485417       -0.2537069586        0.6457057223
 O         -1.3043622873        0.9507611423        0.7049286677
 C          1.7426453231       -0.8914014722       -1.1469008649
 C          2.9681850527       -0.3476281362       -1.4575654489
 H          7.0515294380       -0.9504159213        2.2291342574
 H          8.3219402812        0.2724486384        2.2906757426
 H          8.5311871848       -1.1688021036        1.2948499218
 H          7.9477685072        0.7754783254       -0.1306755665
 H          6.6671787452       -0.4366595377       -0.1813638347
 H          5.4021292197        0.8466579493        1.5438789298
 H          6.6519040095        2.0981432908        1.5184463250
 H          6.2330784653        2.4184870054       -0.9448709617
 H          4.8351723055        2.8378921646        0.0663099054
 H          3.2691891604        1.8102912416        1.1426754765
 H          1.1109314075        0.8347776190        1.6908752900
 H         -2.4015214873       -2.7674613185       -0.5070858922
 H         -2.1616872743       -3.4032534058        1.1193126629
 H         -2.4027418066       -1.2570461983        2.1157700308
 H         -4.2615985779       -0.3855108077        2.6120488681
 H         -5.5780325868       -0.2117892974        1.4482656510
 H         -4.5727618720        1.9345774624        2.5153707093
 H         -3.2043884870        1.7022579521        1.3894891008
 H         -4.0969139399       -1.7097774696       -1.2005357174
 H         -5.1964496293       -0.4123934223       -0.7426067302
 H         -3.0348509217        1.1395599982       -1.0169328654
 H         -3.9538838489        0.5853109290       -2.4381908361
 H          1.3032794506       -1.6431331891       -1.7826156379
 H          3.5041321106       -0.6606012909       -2.3392710686
  49
        -77.98740440
 C          5.6770987242        3.5996585080       -1.4176326995
 C          6.0019251833        2.1816206276       -0.9667296780
 C          5.5600431598        1.9323398347        0.4736144023
 C          5.8282634168        0.4879466018        0.9025701342
 O          5.1168151804       -0.4558479053        0.1273405179
 C          3.7834376668       -0.6241259546        0.3162716283
 C          3.1543276592       -1.4814399675       -0.5912860066
 C          1.8066324060       -1.7452225843       -0.4980089312
 C          1.0596415802       -1.1599471613        0.5176252725
 N         -0.3336593374       -1.4199670051        0.6142226752
 C         -0.8790718624       -2.6908568529        0.4905382972
 O         -0.2464766712       -3.7079244978        0.4261406930
 C         -2.3824770072       -2.5395154785        0.4585414569
 C         -2.6412777753       -1.1111792417        0.9443831466
 N         -3.8097893140       -0.4759012436        0.3903103373
 C         -4.4812950050        0.4990296086        1.2132419981
 C         -3.9059527306        1.9213208673        1.2415637900
 Cl        -4.4537309153        2.8778928446       -0.1652845915
 C         -3.9212096336       -0.3075260106       -1.0395309521
 C         -2.8104867536        0.4732877296       -1.7525879815
 Cl        -1.4442216564       -0.5910408740       -2.1888061202
 C         -1.2726804465       -0.4281346257        0.7700635112
 O         -1.0390871099        0.7533075000        0.8366945697
 C          1.6723799933       -0.3145188895        1.4276124618
 C          3.0249841243       -0.0415954623        1.3277011341
 H          6.1778362101        4.3271163906       -0.7819589289
 H          4.6056465927        3.7807076964       -1.3668670195
 H          6.0030000153        3.7578264789       -2.4427071082
 H          5.4990589898        1.4650917062       -1.6189227035
 H          7.0773776720        2.0086215615       -1.0488779745
 H          6.0984789585        2.5990008647        1.1503538768
 H          4.4931791391        2.1474429263        0.5609105040
 H          5.6162526001        0.3520347609        1.9703992937
 H          6.8794118866        0.2409646309        0.7275910783
 H          3.7523914883       -1.9287532081       -1.3689731064
 H          1.3299643508       -2.4028629377       -1.2068787871
 H         -2.7019425873       -2.6696876906       -0.5755551084
 H         -2.8674589359       -3.3061232567        1.0598652968
 H         -2.7927141056       -1.1367629555        2.0331837848
 H         -4.4743514615        0.1243148986        2.2414619707
 H         -5.5252764846        0.5486981132        0.8876200718
 H         -4.2604216318        2.4541569676        2.1232130580
 H         -2.8161957170        1.9087238179        1.2227864842
 H         -4.0072699321       -1.2926777645       -1.5121292198
 H         -4.8599156302        0.2201681775       -1.2184943171
 H         -2.4016687079        1.2688057868       -1.1340210839
 H         -3.1832137421        0.8874825864       -2.6883704343
 H          1.0931976435        0.1424281311        2.2147535946
 H          3.4709801846        0.6207329657        2.0522963364
  49
        -77.98738857
 C          6.9180734936        1.2689794075       -3.0805958908
 C          6.9724016713        0.6920209939       -1.6713999320
 C          5.7871449469        1.1561461627       -0.8296335001
 C          5.8456053368        0.5849107565        0.5883866045
 O          4.7699812975        1.0195721507        1.3957947675
 C          3.5378036286        0.4725128014        1.2369747815
 C          3.2211135152       -0.5899952832        0.3949334592
 C          1.9254266599       -1.0699579768        0.3364882126
 C          0.9337906334       -0.5027527445        1.1199355360
 N         -0.3959518608       -0.9977326519        1.0485812915
 C         -0.7031410718       -2.3513103843        1.0508036905
 O          0.0849561171       -3.2357319391        1.2408724794
 C         -2.1834323554       -2.4833574690        0.7757475917
 C         -2.7453673521       -1.0731784581        0.9728980636
 N         -3.8795983935       -0.7431006733        0.1475636308
 C         -4.8322707306        0.1970286092        0.6838896710
 C         -4.5018248363        1.6905530904        0.5626294810
 Cl        -4.9281242691        2.3268221154       -1.0521405734
 C         -3.7556674295       -0.7940548749       -1.2902078630
 C         -2.6708189214        0.0717361357       -1.9426908850
 Cl        -1.1010252813       -0.7774638663       -1.9880683935
 C         -1.4923900277       -0.1819169417        0.8986211585
 O         -1.4634768031        1.0198657575        0.8040160646
 C          1.2388293499        0.5563880255        1.9663864337
 C          2.5272660520        1.0389123971        2.0189400067
 H          6.0058409772        0.9586645027       -3.5851406410
 H          7.7679375647        0.9271803736       -3.6662736835
 H          6.9377859584        2.3558465133       -3.0481478238
 H          6.9731419758       -0.3992719588       -1.7254962648
 H          7.9019131513        0.9991376874       -1.1870305224
 H          5.7829292077        2.2460382540       -0.7643107501
 H          4.8540281785        0.8518770481       -1.3084368078
 H          6.7379094773        0.9573926981        1.0999913137
 H          5.8980487577       -0.5106598664        0.5651007620
 H          3.9697022089       -1.0574445126       -0.2241297189
 H          1.6869090881       -1.8903932674       -0.3215132104
 H         -2.2960236372       -2.8141922431       -0.2568100874
 H         -2.6366476983       -3.2340129971        1.4204799215
 H         -3.0843790793       -0.9761557176        2.0142906031
 H         -4.9514454108       -0.0248798384        1.7488474602
 H         -5.7953809931        0.0098009241        0.1982719294
 H         -5.0897791939        2.2660066746        1.2767897462
 H         -3.4386181759        1.8756798376        0.7157353206
 H         -3.5995775956       -1.8334074971       -1.6012950961
 H         -4.7174771711       -0.4758440564       -1.6967775796
 H         -2.5064386133        1.0033064938       -1.4062272481
 H         -2.9310483477        0.2831916082       -2.9789177531
 H          0.4675742521        1.0032262298        2.5734915691
 H          2.7844548605        1.8603202999        2.6682753825
  49
        -77.98738317
 C          7.3265809952       -0.6613412494       -2.5001899378
 C          7.1847203156       -0.2829547058       -1.0310450986
 C          5.9377286287        0.5622638946       -0.7869353614
 C          5.8039613633        0.9529205349        0.6861959574
 O          4.6684295365        1.7559148977        0.9381350367
 C          3.4375196752        1.1884508649        1.0106836964
 C          3.1623370370       -0.1737328012        0.9284019935
 C          1.8613023098       -0.6294570040        1.0400335494
 C          0.8221283099        0.2639098570        1.2427186778
 N         -0.5106906823       -0.2135903597        1.3600794987
 C         -0.8544027049       -1.3200363792        2.1249208970
 O         -0.1089829607       -1.9094742439        2.8574037943
 C         -2.3109445244       -1.6231178443        1.8594773211
 C         -2.8487960410       -0.3709255250        1.1626050152
 N         -3.9126623369       -0.6021895601        0.2188401043
 C         -3.6882159040       -1.4725693735       -0.9112538590
 C         -2.5376989998       -1.1214525957       -1.8625059240
 Cl        -0.9902905437       -1.8040618218       -1.2903920143
 C         -4.8775343982        0.4546887786        0.0430891891
 C         -4.5016099859        1.6106970353       -0.8933126323
 Cl        -4.7966557488        1.1892095347       -2.6048401099
 C         -1.5705913515        0.3383090549        0.6796111377
 O         -1.5033340742        1.2617022589       -0.0929184394
 C          1.0849992497        1.6261626739        1.3255009375
 C          2.3791543586        2.0803531123        1.2055026714
 H          6.4629697527       -1.2330950645       -2.8323511494
 H          8.2179450124       -1.2643935080       -2.6547638543
 H          7.4038616361        0.2306504567       -3.1175273608
 H          7.1310759637       -1.1909676140       -0.4256240442
 H          8.0674123846        0.2752270735       -0.7112486909
 H          5.9852274625        1.4746460774       -1.3847617645
 H          5.0504134515        0.0090543163       -1.1016406071
 H          6.6513886093        1.5795715950        0.9796139568
 H          5.8006087411        0.0620378297        1.3264227756
 H          3.9476470612       -0.8965918483        0.7773902079
 H          1.6562864032       -1.6859218331        0.9714901241
 H         -2.3496693434       -2.4905179285        1.2002771874
 H         -2.8334083525       -1.8763057552        2.7800491621
 H         -3.2581983030        0.3037935520        1.9281776232
 H         -4.6099931872       -1.4674515650       -1.4959990270
 H         -3.5371670971       -2.4970187236       -0.5518896222
 H         -2.7161676069       -1.5560380613       -2.8451032908
 H         -2.3902559811       -0.0479578095       -1.9549989740
 H         -5.8078440826        0.0013657048       -0.3139868196
 H         -5.0781371328        0.8857752454        1.0287507508
 H         -3.4474635053        1.8714795778       -0.7988216419
 H         -5.1236980186        2.4809101918       -0.6869123449
 H          0.2776027741        2.3249351366        1.4763691494
 H          2.6038500318        3.1331010173        1.2668956063
  49
        -77.98730071
 C          6.2185202945        3.2721923897        1.7036398340
 C          6.3642422450        1.9808319581        0.9094079897
 C          5.5468412918        2.0156768931       -0.3799666952
 C          5.6436530136        0.6928541270       -1.1436082454
 O          5.1351383341       -0.4028108499       -0.4096048192
 C          3.7944368668       -0.5635723682       -0.2701180726
 C          3.4022341831       -1.6060891183        0.5743114027
 C          2.0702141657       -1.8792009472        0.7901204759
 C          1.0986152385       -1.1155198416        0.1533146389
 N         -0.2784928477       -1.3908113746        0.3770050382
 C         -0.8156886583       -2.6700699216        0.3141104377
 O         -0.1849877079       -3.6770571477        0.1510573527
 C         -2.3144927669       -2.5414832890        0.4647423308
 C         -2.5305123217       -1.1219813429        0.9930804596
 N         -3.7783653740       -0.5072145400        0.6184261565
 C         -4.3428432986        0.4486538062        1.5383713232
 C         -3.7929420421        1.8806279724        1.5007277543
 Cl        -4.5451639991        2.8374093378        0.1920488942
 C         -4.0997891103       -0.3342320244       -0.7783298746
 C         -3.1187180449        0.4735864826       -1.6361193859
 Cl        -1.8124606980       -0.5651755629       -2.2774154067
 C         -1.2097305085       -0.4135707147        0.6396078725
 O         -0.9902088071        0.7714746750        0.6832190970
 C          1.4745732320       -0.0858053639       -0.6933806434
 C          2.8130164144        0.1946919784       -0.9016811717
 H          6.8104508789        3.2286331167        2.6145959822
 H          5.1787290386        3.4369610460        1.9778373041
 H          6.5561845029        4.1228132652        1.1150889038
 H          7.4163889328        1.8185018885        0.6647183291
 H          6.0300773102        1.1371012281        1.5161689194
 H          4.5028463364        2.2204165578       -0.1345211373
 H          5.9073368115        2.8160466770       -1.0292216426
 H          6.6948062461        0.4398364370       -1.3099213322
 H          5.1494593846        0.7687847993       -2.1200710777
 H          4.1708421788       -2.1912490751        1.0534145517
 H          1.7814060428       -2.6873935062        1.4423807599
 H         -2.7549111453       -2.6696147798       -0.5241525153
 H         -2.7123228881       -3.3200304782        1.1130567364
 H         -2.5252098810       -1.1571125470        2.0922746911
 H         -4.1838837745        0.0659388545        2.5512715889
 H         -5.4230904427        0.4819208018        1.3641412527
 H         -4.0314758271        2.4005746027        2.4278466965
 H         -2.7159244162        1.8876570540        1.3327624126
 H         -4.2337114734       -1.3187584371       -1.2411201675
 H         -5.0648657846        0.1745833090       -0.8156211890
 H         -2.6395866923        1.2707005845       -1.0726420536
 H         -3.6292907634        0.8894122551       -2.5035149531
 H          0.7233111135        0.5044803009       -1.1919875118
 H          3.0707013941        1.0018214991       -1.5685209685
  49
        -77.98717032
 C          6.3283375985        4.0264528174        0.6602839065
 C          6.5505849380        2.5321136251        0.8586710938
 C          5.6252836028        1.7049982106       -0.0293453270
 C          5.8543700474        0.2044943356        0.1621033136
 O          5.0275300784       -0.5842167518       -0.6694449608
 C          3.7166894397       -0.7537175007       -0.3604259334
 C          2.9689849435       -1.4719379921       -1.2982189933
 C          1.6309954727       -1.7222368479       -1.0944166863
 C          1.0137749327       -1.2646962050        0.0640210506
 N         -0.3691277075       -1.5113322312        0.2762559483
 C         -0.9646349136       -2.7442073396        0.0451080055
 O         -0.3748424936       -3.7544976834       -0.2200012294
 C         -2.4576643594       -2.5632420678        0.1941450580
 C         -2.6190120250       -1.2094141479        0.8899995448
 N         -3.8179068087       -0.4845201367        0.5535386905
 C         -4.3688079891        0.3818997088        1.5656929337
 C         -3.7484276329        1.7768538940        1.7205327917
 Cl        -4.4085239712        2.9245369744        0.5199553946
 C         -4.0716576105       -0.1223215001       -0.8211130826
 C         -3.0163548886        0.7276315022       -1.5392642198
 Cl        -1.7376513086       -0.2921930743       -2.2569467311
 C         -1.2548304174       -0.5333197397        0.6621345680
 O         -0.9782347953        0.6239510348        0.8595703665
 C          1.7450143940       -0.5577360821        1.0040772481
 C          3.0874005361       -0.2971004297        0.7940410348
 H          6.5208037495        4.3061498519       -0.3728687255
 H          6.9936378621        4.5998964033        1.3011697428
 H          5.3023411235        4.2951402032        0.9014335996
 H          7.5890770364        2.2840431646        0.6286103233
 H          6.3739239550        2.2745558891        1.9057928173
 H          4.5846978335        1.9482762097        0.1952538423
 H          5.8010492527        1.9508980254       -1.0784845324
 H          5.7308947063       -0.0769143017        1.2154363106
 H          6.8727203034       -0.0551303063       -0.1416376500
 H          3.4675231124       -1.8217130053       -2.1878533227
 H          1.0619734768       -2.2716683350       -1.8268947058
 H         -2.8861056372       -2.5463852647       -0.8081107479
 H         -2.9023018149       -3.3954353036        0.7365666206
 H         -2.6573333259       -1.3793837503        1.9756956822
 H         -4.2671606007       -0.1285722733        2.5283940611
 H         -5.4388234353        0.4936917588        1.3632572199
 H         -3.9921783471        2.1917620115        2.6979356888
 H         -2.6674783334        1.7476028837        1.5834802360
 H         -4.2378337345       -1.0328075241       -1.4081616692
 H         -5.0064416651        0.4414314255       -0.8269094684
 H         -2.5200947471        1.4246955860       -0.8681288265
 H         -3.4706950233        1.2712634564       -2.3664139779
 H          1.2663716482       -0.1989595376        1.9018617872
 H          3.6266783663        0.2569728896        1.5454243287
  49
        -77.98714968
 C          7.8892996671        0.8197159544        2.4977649076
 C          7.1751765443        1.6029585219        1.4031379413
 C          6.2826219078        0.6988955752        0.5575929994
 C          5.5755266331        1.4827907857       -0.5497860643
 O          4.7579419984        0.6638122983       -1.3607927106
 C          3.5478813746        0.2491300979       -0.9063840843
 C          2.9544647011        0.6315484031        0.2931726455
 C          1.7029477638        0.1505272951        0.6346179033
 C          1.0279467382       -0.7098556573       -0.2152380322
 N         -0.2629417172       -1.1892483049        0.1339427872
 C         -0.6478900076       -2.5144392926       -0.0195589070
 O          0.0866815112       -3.4140747897       -0.3196768928
 C         -2.1302909075       -2.5934759686        0.2635706662
 C         -2.4681337447       -1.2665691559        0.9478550237
 N         -3.8009118394       -0.7739661276        0.7088605849
 C         -4.4078182008        0.0146688753        1.7521348047
 C         -4.0334639028        1.5008923952        1.8277787023
 Cl        -4.9866428434        2.4761794431        0.6725819325
 C         -4.2314883494       -0.5055787503       -0.6431680872
 C         -3.4089094214        0.4925408742       -1.4672178110
 Cl        -2.0373950881       -0.3108769389       -2.2818540861
 C         -1.2706575236       -0.3697771184        0.5847288594
 O         -1.1874277306        0.8235400594        0.7384353789
 C          1.6085817108       -1.0937861521       -1.4184908562
 C          2.8568186138       -0.6212408462       -1.7544816338
 H          8.5166696166        0.0446941164        2.0637475050
 H          7.1686129714        0.3449407060        3.1598560435
 H          8.5183689157        1.4790965362        3.0907877577
 H          6.5679775914        2.3899906776        1.8568495895
 H          7.9136594962        2.0856308507        0.7593524828
 H          6.8824529989       -0.0880292852        0.0961031452
 H          5.5396409156        0.2144471347        1.1947519528
 H          6.3167971034        1.8965738760       -1.2397128408
 H          4.9986005442        2.3160844781       -0.1296090650
 H          3.4493372148        1.3046783271        0.9746130425
 H          1.2506512852        0.4549792897        1.5654865278
 H         -2.6411501266       -2.6853829236       -0.6950359819
 H         -2.3706088896       -3.4722528701        0.8589590018
 H         -2.3820064608       -1.4045716361        2.0353195777
 H         -4.1353803564       -0.4391283542        2.7100288085
 H         -5.4940496039       -0.0689910013        1.6448875409
 H         -4.2624489872        1.8977838014        2.8161832692
 H         -2.9801804405        1.6569829528        1.5947414209
 H         -4.2834116618       -1.4492997280       -1.1980823648
 H         -5.2483233893       -0.1145225599       -0.5739839206
 H         -2.9872174844        1.2861399113       -0.8548582530
 H         -4.0218879031        0.9225041503       -2.2581185317
 H          1.0819019688       -1.7602720468       -2.0822912722
 H          3.3241980634       -0.9062779857       -2.6832579079
  49
        -77.98712234
 C          8.9638157786        1.4647722101        0.7652842428
 C          7.6553933031        0.7226924489        0.5265887677
 C          6.9559387407        1.2065515712       -0.7415655322
 C          5.6278463386        0.4914718029       -0.9678896207
 O          4.7461490907        0.8710040105        0.0710769125
 C          3.5007521009        0.3389167892        0.1069776837
 C          2.6943149852        0.7505494511        1.1715969481
 C          1.4123207138        0.2684663235        1.3108644721
 C          0.9090972523       -0.6316278676        0.3787756403
 N         -0.4163908602       -1.1259473094        0.5100056655
 C         -0.7471334627       -2.4635499136        0.3422614288
 O          0.0428478074       -3.3558879422        0.2037875170
 C         -2.2546211910       -2.5673472474        0.3704407845
 C         -2.7285412417       -1.2233130469        0.9291114074
 N         -4.0060486614       -0.7707916471        0.4395962871
 C         -4.7990913376        0.0443434392        1.3259527526
 C         -4.4682246166        1.5407916494        1.4012418006
 Cl        -5.2176167012        2.4459100247        0.0547066427
 C         -4.1958690896       -0.5648342782       -0.9770207621
 C         -3.2565564165        0.4187819463       -1.6857587238
 Cl        -1.7529418102       -0.3852420055       -2.2161087004
 C         -1.5005377828       -0.3134267816        0.7443035432
 O         -1.4650852281        0.8864728770        0.8583431420
 C          1.6961196271       -1.0399294033       -0.6854623965
 C          2.9873681210       -0.5627938023       -0.8209521784
 H          8.7831578923        2.5317893856        0.8738178604
 H          9.6453375556        1.3165639228       -0.0698831783
 H          9.4468829775        1.1048830344        1.6703809286
 H          7.8541297136       -0.3483623685        0.4422316760
 H          6.9862114658        0.8734311600        1.3747377446
 H          6.7632131161        2.2777378342       -0.6641405529
 H          7.5954949715        1.0342512381       -1.6093281299
 H          5.7793941906       -0.5967032564       -0.9558339595
 H          5.2062081569        0.7787693876       -1.9412402027
 H          3.1023159655        1.4518158338        1.8817894012
 H          0.7978898944        0.5930123544        2.1355833669
 H         -2.5916560832       -2.7103960972       -0.6563311973
 H         -2.5779857605       -3.4275364259        0.9536002946
 H         -2.8330043469       -1.3173592860        2.0195778930
 H         -4.6912975236       -0.3643984196        2.3353690168
 H         -5.8482120403       -0.0692307227        1.0345305713
 H         -4.8751216107        1.9714090158        2.3155107863
 H         -3.3930234127        1.7126754151        1.3511164175
 H         -4.1351038000       -1.5303638324       -1.4922144900
 H         -5.2148235012       -0.1942571464       -1.1037054674
 H         -2.9593277423        1.2437517204       -1.0425691617
 H         -3.7281682515        0.8053544233       -2.5881615989
 H          1.3020279577       -1.7342433048       -1.4103370115
 H          3.5786884997       -0.8978432166       -1.6577949134
  49
        -77.98708963
 C          6.7986295359        0.2558004460        1.6522269864
 C          7.4342905798        0.0326821273        0.2854171506
 C          6.4058699015       -0.0589104411       -0.8425683659
 C          5.6835216749        1.2641288144       -1.1192169141
 O          4.7286921090        1.6143301882       -0.1372889657
 C          3.5543216055        0.9397766699       -0.0631365541
 C          2.7440341208        1.2669405779        1.0277782825
 C          1.5226306621        0.6577222462        1.2085909207
 C          1.0834776284       -0.2899419882        0.2920268865
 N         -0.1772968830       -0.9209629359        0.4669241774
 C         -0.3683973706       -2.2868797085        0.3127745768
 O          0.5081544717       -3.0904137528        0.1521893090
 C         -1.8545051320       -2.5505940598        0.3883951239
 C         -2.4517895747       -1.2612774786        0.9578404254
 N         -3.7841816428       -0.9500354030        0.5060029728
 C         -4.6330634872       -0.2193997138        1.4141216305
 C         -4.4616156088        1.3041908178        1.4763345519
 Cl        -5.3426886037        2.1172068312        0.1508821088
 C         -4.0369653990       -0.7729564679       -0.9046902895
 C         -3.2296184708        0.3015589955       -1.6434863876
 Cl        -1.6657952135       -0.3405164446       -2.2179361514
 C         -1.3337968188       -0.2269172180        0.7335121402
 O         -1.4222123682        0.9704640896        0.8446454663
 C          1.8718422481       -0.6142673234       -0.7999356137
 C          3.1028923394       -0.0095555510       -0.9762709958
 H          6.0977092976       -0.5448322156        1.8803618830
 H          6.2602548752        1.1987808315        1.6758631762
 H          7.5637332799        0.2738857652        2.4252595973
 H          8.1324233250        0.8451235023        0.0702220482
 H          8.0064715406       -0.8981359382        0.3044990519
 H          6.9122041684       -0.3587425240       -1.7627170318
 H          5.6705988873       -0.8267651746       -0.5942172576
 H          5.2147000328        1.2408565936       -2.1112448184
 H          6.4023442602        2.0884421426       -1.1022167775
 H          3.1006586325        2.0075212348        1.7257219788
 H          0.9065116795        0.9184994366        2.0544213901
 H         -2.2058231203       -2.7351263891       -0.6269244269
 H         -2.0661901790       -3.4367031758        0.9838200229
 H         -2.5132042891       -1.3596740357        2.0511824616
 H         -4.4524505220       -0.6090349350        2.4206934856
 H         -5.6722255328       -0.4455617815        1.1545224380
 H         -4.8848802164        1.6938002842        2.4014929009
 H         -3.4127922213        1.5894625285        1.3937171117
 H         -3.8887092661       -1.7291363717       -1.4195176934
 H         -5.0930193446       -0.5139453626       -1.0013731699
 H         -3.0027224023        1.1567727339       -1.0111719445
 H         -3.7666993376        0.6311621507       -2.5317505315
 H          1.5261584409       -1.3444730894       -1.5142615939
 H          3.6925918287       -0.2843494864       -1.8359744963
  49
        -77.98708367
 C          8.4104287936       -1.2559635990       -0.4273258093
 C          7.7696979117       -0.0997259679        0.3303537173
 C          6.4462998820        0.3208179152       -0.3026852050
 C          5.8081136762        1.4883909483        0.4523427070
 O          4.5882643960        1.9100736890       -0.1231368978
 C          3.4589758747        1.1811881713        0.0692178183
 C          2.3289637330        1.6361222479       -0.6157559449
 C          1.1193594582        0.9902335371       -0.4932496665
 C          1.0140444894       -0.1249355394        0.3294918725
 N         -0.2303165435       -0.7992376909        0.4671170695
 C         -0.3596141111       -2.1778836026        0.3662566077
 O          0.5502948796       -2.9497844090        0.2405324991
 C         -1.8350734689       -2.5015750532        0.4231859005
 C         -2.4910024630       -1.2229786211        0.9484876690
 N         -3.8436511444       -0.9965414981        0.5079816025
 C         -4.7125954079       -0.2702604328        1.4003919992
 C         -4.6120191830        1.2608259436        1.4002058400
 Cl        -5.5473680388        1.9787073933        0.0572509578
 C         -4.1283293563       -0.8938168570       -0.9037399221
 C         -3.3849278398        0.1853443946       -1.6995786120
 Cl        -1.7966074040       -0.4078911319       -2.2665757582
 C         -1.4233148871       -0.1469407968        0.6767376962
 O         -1.5682421126        1.0482703982        0.7384634273
 C          2.1248205679       -0.5808880839        1.0206686795
 C          3.3425457520        0.0621305210        0.8887334449
 H          7.7503384594       -2.1203552674       -0.4335284846
 H          9.3497582039       -1.5439234509        0.0384503258
 H          8.6106256651       -0.9715341052       -1.4576977698
 H          7.5971259196       -0.3968113627        1.3676525069
 H          8.4524939213        0.7527512842        0.3406480596
 H          6.6107414344        0.6260577915       -1.3379810390
 H          5.7582380551       -0.5270138651       -0.3154143186
 H          6.4567304558        2.3671419120        0.3899666346
 H          5.6735784447        1.2388954089        1.5123808255
 H          2.4300284785        2.5047918320       -1.2463697213
 H          0.2576046902        1.3485160854       -1.0314875763
 H         -2.1597332860       -2.7263851042       -0.5929195341
 H         -2.0219398674       -3.3798880073        1.0383335692
 H         -2.5330821455       -1.2817388829        2.0459656374
 H         -4.4990121341       -0.6100716579        2.4185488224
 H         -5.7436142419       -0.5548634521        1.1671645154
 H         -5.0411844325        1.6668013125        2.3155717564
 H         -3.5788195503        1.5907686038        1.2917080201
 H         -3.9420840265       -1.8636712404       -1.3792999749
 H         -5.1970324462       -0.6898037164       -0.9924027327
 H         -3.1949272610        1.0767451916       -1.1064316306
 H         -3.9473992582        0.4494640081       -2.5938897447
 H          2.0461079354       -1.4483812245        1.6563697139
 H          4.1871312533       -0.3212618776        1.4382174802
  49
        -77.98707781
 C          7.0182316609        1.4784952310       -2.9114795375
 C          6.6340181889        1.9551750093       -1.5162175314
 C          5.9345573828        0.8563550275       -0.7210798669
 C          5.5594940595        1.3307520276        0.6841695548
 O          4.9299465542        0.3236830936        1.4501585071
 C          3.6286618989        0.0105299502        1.2214838461
 C          2.7753059997        0.6691117561        0.3411763429
 C          1.4587963165        0.2642174300        0.2130588306
 C          0.9761368030       -0.7952610665        0.9634454974
 N         -0.3799422605       -1.2036935393        0.8354639205
 C         -0.7605474242       -2.5299665256        0.6776372731
 O         -0.0172326592       -3.4707064946        0.7098046418
 C         -2.2534986312       -2.5495951560        0.4400399103
 C         -2.7297146288       -1.1545784046        0.8497493231
 N         -3.8914554913       -0.6686164286        0.1498853635
 C         -4.7598992140        0.2337456507        0.8642211863
 C         -4.3554112650        1.7127484738        0.9211299084
 Cl        -4.8327643468        2.5804552498       -0.5664911923
 C         -3.8581185184       -0.5382086648       -1.2874801950
 C         -2.7701900210        0.3567601437       -1.8927137780
 Cl        -1.2516157008       -0.5517011786       -2.1462252696
 C         -1.4349772690       -0.3215027575        0.8211183384
 O         -1.3465809518        0.8796912813        0.8799238216
 C          1.8184879504       -1.4580215549        1.8489287595
 C          3.1307234107       -1.0596304101        1.9700619797
 H          6.1347096652        1.1721209225       -3.4669519674
 H          7.6950264086        0.6294103840       -2.8508344374
 H          7.5129648142        2.2735467812       -3.4640048699
 H          7.5305072483        2.2742658577       -0.9800615207
 H          5.9723461385        2.8209073794       -1.5975805720
 H          5.0356148385        0.5337509334       -1.2505668537
 H          6.5912866671       -0.0111010602       -0.6301073626
 H          4.9358941407        2.2322725290        0.6371580734
 H          6.4662455495        1.5735552159        1.2459752802
 H          3.1164267244        1.5001828279       -0.2548450988
 H          0.8081158088        0.7791531616       -0.4745919405
 H         -2.4134169204       -2.7288217822       -0.6232611326
 H         -2.7282224076       -3.3587038687        0.9921099360
 H         -3.0033182119       -1.1808572856        1.9145962533
 H         -4.8308891269       -0.1237381262        1.8961334509
 H         -5.7575201654        0.1587385996        0.4197668350
 H         -4.8716592135        2.2135080578        1.7394088994
 H         -3.2769840330        1.8251256060        1.0330503861
 H         -3.7756226857       -1.5344464470       -1.7371238245
 H         -4.8246005960       -0.1277641785       -1.5859729233
 H         -2.5287842051        1.2013992726       -1.2517841433
 H         -3.0778532745        0.7136947753       -2.8744814344
 H          1.4480652421       -2.2869494600        2.4300530400
 H          3.8002940767       -1.5620447099        2.6495647375
  49
        -77.98706479
 C          6.4707132548        3.3740831417        1.8643368317
 C          6.4090932018        2.6962202705        0.5011185926
 C          5.7347119900        1.3297615573        0.5841233772
 C          5.6846737614        0.6428057035       -0.7820195797
 O          5.0858862058       -0.6361582167       -0.7276682356
 C          3.7359332111       -0.7507348494       -0.6374121427
 C          2.8245611212        0.3000216330       -0.6839962486
 C          1.4666226611        0.0484480139       -0.6044455374
 C          1.0021321612       -1.2490590117       -0.4661949243
 N         -0.3937415973       -1.5027978044       -0.3693148188
 C         -1.0395671825       -2.4812555023       -1.1139912944
 O         -0.4984671553       -3.2620976018       -1.8460390925
 C         -2.5215073954       -2.3544884634       -0.8430134502
 C         -2.6132509169       -1.4705024312        0.4023545631
 N         -3.8042369225       -0.6661414683        0.5020373145
 C         -4.1125565578        0.2874993911       -0.5370351706
 C         -3.0674707138        1.3677158352       -0.8398989101
 Cl        -1.8558764951        0.7842589102       -2.0180373274
 C         -4.2822311288       -0.3604972110        1.8274298233
 C         -3.6107146863        0.7994491562        2.5743848985
 Cl        -4.2804200049        2.3781724753        2.0713965876
 C         -1.2368906540       -0.7810646410        0.4427529579
 O         -0.9161276950        0.1541204670        1.1333630245
 C          1.9034209401       -2.3064477036       -0.4165626852
 C          3.2542345467       -2.0563011884       -0.5067159252
 H          6.9513714475        4.3461873681        1.7861380240
 H          7.0366092724        2.7663558109        2.5666260487
 H          5.4697028222        3.5167588848        2.2650846812
 H          5.8567173964        3.3312855793       -0.1955981441
 H          7.4207447347        2.5764230969        0.1072551103
 H          6.2836239081        0.6867495435        1.2750888422
 H          4.7211580196        1.4425855853        0.9746003708
 H          6.7017979167        0.4526783027       -1.1370892931
 H          5.1797113080        1.2791983987       -1.5193360206
 H          3.1512449600        1.3217689051       -0.7916400066
 H          0.7697296018        0.8693868574       -0.6473041441
 H         -2.9722127362       -1.8700147109       -1.7093196192
 H         -2.9846591586       -3.3325596523       -0.7262912461
 H         -2.6086572732       -2.1206490851        1.2893812537
 H         -5.0303195670        0.7943846637       -0.2329759205
 H         -4.3317328270       -0.2513046404       -1.4660621388
 H         -3.5420898086        2.2348133095       -1.2968526347
 H         -2.5209461236        1.6719550949        0.0496025820
 H         -5.3558906966       -0.1589064493        1.7568446160
 H         -4.1549403833       -1.2585650780        2.4398084876
 H         -2.5375314483        0.8246890738        2.3851317441
 H         -3.8012865676        0.7196835724        3.6440556296
 H          1.5450904658       -3.3183024933       -0.3175842639
 H          3.9689421494       -2.8629613657       -0.4760509449
  49
        -77.98699557
 C          7.2997685561       -0.7703061240       -1.8587366628
 C          7.6628106759       -0.1542258447       -0.5119557118
 C          6.4411367210        0.2445979328        0.3148686463
 C          5.6978794531        1.4479893607       -0.2699652333
 O          4.6189198904        1.8593547822        0.5469551115
 C          3.4617171574        1.1502459225        0.5462065286
 C          2.4953504411        1.5813852075        1.4593116290
 C          1.2756925683        0.9488856812        1.5488908549
 C          0.9945410304       -0.1268481079        0.7151311769
 N         -0.2628346469       -0.7830928446        0.7970186174
 C         -0.3984840165       -2.1643365551        0.7933571210
 O          0.5104623017       -2.9454597011        0.8523448346
 C         -1.8743278460       -2.4773383738        0.7049633788
 C         -2.5739150947       -1.1539274295        1.0248748833
 N         -3.8414476299       -0.9548979212        0.3691123314
 C         -4.8210570521       -0.1537982874        1.0602289666
 C         -4.6963100295        1.3716375591        0.9506864242
 Cl        -5.4130136912        1.9801282459       -0.5692189435
 C         -3.9082111151       -0.9621127145       -1.0733647452
 C         -3.0355713343        0.0456463599       -1.8316427839
 Cl        -1.3935660737       -0.5972117614       -2.1113525389
 C         -1.4615424108       -0.1098302999        0.8186015899
 O         -1.5938093385        1.0873733760        0.7630147219
 C          1.9389767825       -0.5555414509       -0.2031341516
 C          3.1682080506        0.0726541971       -0.2852034246
 H          8.1973569236       -1.1103291002       -2.3698374335
 H          6.8012030678       -0.0489723405       -2.5012853756
 H          6.6418870573       -1.6257806879       -1.7207194357
 H          8.2420912242       -0.8811735896        0.0610275692
 H          8.2949985898        0.7223771119       -0.6697920179
 H          5.7590406504       -0.6043607673        0.3946621988
 H          6.7567105900        0.5086274675        1.3265865654
 H          5.3519229371        1.2481328568       -1.2898011293
 H          6.3651949540        2.3145258642       -0.2971897987
 H          2.7312802878        2.4206216884        2.0938057412
 H          0.5388798132        1.2905807862        2.2583544094
 H         -2.0801134440       -2.7971710576       -0.3166629142
 H         -2.1434420939       -3.2928799342        1.3735583345
 H         -2.7780009099       -1.1207708301        2.1047610446
 H         -4.7666728003       -0.4097967791        2.1228442026
 H         -5.8106599856       -0.4521090754        0.6994509276
 H         -5.2479254991        1.8539720693        1.7568769934
 H         -3.6530516515        1.6869215700        0.9682457204
 H         -3.6698773286       -1.9673912860       -1.4394595231
 H         -4.9478054704       -0.7596442930       -1.3377199493
 H         -2.9166861588        0.9806870890       -1.2892141264
 H         -3.4564633019        0.2411499125       -2.8169523220
 H          1.7168999494       -1.3858176556       -0.8545319177
 H          3.8805715751       -0.2873956601       -1.0097389332
  49
        -77.98698924
 C          5.3516370325        3.0394895309       -0.3193007847
 C          6.2399896038        2.2401695545       -1.2647731856
 C          5.7956886990        0.7844823186       -1.4134118992
 C          5.9779419558       -0.0428805280       -0.1363334151
 O          5.0348388754        0.2482983515        0.8756747366
 C          3.7500481445       -0.1662622943        0.7443366298
 C          3.2649331952       -1.0081953294       -0.2529902871
 C          1.9318400955       -1.3758049524       -0.2657666463
 C          1.0700891215       -0.9155293188        0.7164112545
 N         -0.2986101389       -1.2956446555        0.6933804487
 C         -0.7199286324       -2.5981798282        0.4642079248
 O          0.0032658009       -3.5525852589        0.3900619247
 C         -2.2253348820       -2.5738099737        0.3324931215
 C         -2.6421502129       -1.2002103307        0.8642846008
 N         -3.8177556377       -0.6354296107        0.2515754203
 C         -4.6309731591        0.2335865340        1.0654763894
 C         -4.1864698041        1.6954180544        1.2067485945
 Cl        -4.7089424529        2.6768762360       -0.1924818110
 C         -3.8371181592       -0.3983761334       -1.1726895542
 C         -2.7499090284        0.5112898143       -1.7579980957
 Cl        -1.2696173459       -0.4097073426       -2.1429164970
 C         -1.3297378021       -0.3963143961        0.8281712202
 O         -1.2062665560        0.7949836619        0.9685866943
 C          1.5434976835       -0.0760286714        1.7175913817
 C          2.8689276475        0.2963552901        1.7257958567
 H          5.6809423089        4.0753969884       -0.2783162108
 H          5.3877386606        2.6248229647        0.6838504035
 H          4.3185100726        3.0202334161       -0.6606319109
 H          6.2223678556        2.7068545523       -2.2527827690
 H          7.2716825609        2.2658924269       -0.9059705539
 H          4.7457660062        0.7602178152       -1.7117805298
 H          6.3839924356        0.3110365437       -2.2025950050
 H          6.9442760461        0.1900533700        0.3201267234
 H          5.9611377930       -1.1146015393       -0.3718326435
 H          3.9106986749       -1.3879411431       -1.0283470149
 H          1.5625691445       -2.0253626142       -1.0433781195
 H         -2.4628772298       -2.6776401948       -0.7263289846
 H         -2.6789335315       -3.4093861812        0.8622253611
 H         -2.8699979898       -1.2965282120        1.9355749198
 H         -4.6668468600       -0.1947349115        2.0718866583
 H         -5.6484453220        0.2130981291        0.6620185569
 H         -4.6518056471        2.1482634795        2.0815356971
 H         -3.1015260738        1.7757088113        1.2743736869
 H         -3.8009834792       -1.3597163195       -1.6979969383
 H         -4.8027284461        0.0576649874       -1.3991101952
 H         -2.4565115906        1.3008727423       -1.0701624314
 H         -3.0888877306        0.9464447588       -2.6971143517
 H          0.8732703406        0.2888686425        2.4796089871
 H          3.2549231046        0.9478420904        2.4934536049
  49
        -77.98692185
 C          7.0360278816       -0.4119439687       -2.2101791106
 C          6.9858129053        1.0637812462       -1.8294020328
 C          5.7689627991        1.4237420147       -0.9779563294
 C          5.8437012197        0.8413758957        0.4355084216
 O          4.7601582129        1.2554072036        1.2448627942
 C          3.5445089232        0.6695270511        1.1002979095
 C          2.5286605145        1.1942746613        1.9042377200
 C          1.2573024429        0.6669006317        1.8708093012
 C          0.9739501218       -0.3955293753        1.0208281307
 N         -0.3366181626       -0.9419835319        0.9748730407
 C         -0.5882511603       -2.3070654602        0.9614238342
 O          0.2403535479       -3.1616755548        1.1120981760
 C         -2.0694127411       -2.4954248376        0.7278706513
 C         -2.6819748314       -1.1149304505        0.9767191864
 N         -3.8598285244       -0.8167821440        0.2021940921
 C         -4.8306507299        0.0688624594        0.7955100288
 C         -4.5684306747        1.5775676205        0.6978478705
 Cl        -5.0833676085        2.2306988973       -0.8840080908
 C         -3.7889904645       -0.8318177954       -1.2399616123
 C         -2.7669637684        0.0932159313       -1.9121153543
 Cl        -1.1647211602       -0.6854343626       -2.0307435724
 C         -1.4704825245       -0.1702697766        0.8767726973
 O         -1.4953398816        1.0331854208        0.8047737020
 C          1.9698782745       -0.9187023782        0.2124958695
 C          3.2490675158       -0.3945795699        0.2524576470
 H          7.1626832309       -1.0418486053       -1.3333821390
 H          7.8719220041       -0.5981230380       -2.8803026090
 H          6.1202359874       -0.7052260976       -2.7191000732
 H          7.8967826052        1.3327999382       -1.2902776795
 H          6.9537223712        1.6607591667       -2.7431792484
 H          5.6970555679        2.5097023327       -0.8865909304
 H          4.8594801747        1.0750017898       -1.4714231850
 H          6.7298765594        1.2305458840        0.9457478185
 H          5.9100263856       -0.2517275011        0.4154663999
 H          2.7686561343        2.0185377835        2.5565548774
 H          0.4826318903        1.0809812706        2.4964275208
 H         -2.2001927142       -2.8055794445       -0.3090013451
 H         -2.4710543005       -3.2795047201        1.3669471212
 H         -2.9845063541       -1.0542346704        2.0320452122
 H         -4.8999630137       -0.1817561681        1.8585367158
 H         -5.8026508071       -0.1489885946        0.3413928603
 H         -5.1519449647        2.1111443102        1.4472927905
 H         -3.5087981763        1.8046924212        0.8149657253
 H         -3.6014200677       -1.8567473599       -1.5802139872
 H         -4.7780599740       -0.5463403827       -1.6031450685
 H         -2.6235540788        1.0203688579       -1.3621350719
 H         -3.0735259926        0.3132486959       -2.9337780964
 H          1.7482754193       -1.7403046080       -0.4499192923
 H          4.0013134566       -0.8294656196       -0.3855021215
  49
        -77.98687814
 C          8.6143517917        0.3386329170       -0.9228486079
 C          7.4371717450       -0.5899418711       -0.6478315086
 C          6.3906324688        0.0250760027        0.2799125787
 C          5.6819893982        1.2307560422       -0.3433491936
 O          4.6161345054        1.7023635130        0.4577697611
 C          3.4396896641        1.0264919213        0.4885479145
 C          2.4849165939        1.5284037881        1.3774475235
 C          1.2471614513        0.9366501629        1.4933000048
 C          0.9366243743       -0.1695021917        0.7114853872
 N         -0.3399836151       -0.7835049542        0.8193512625
 C         -0.5160846200       -2.1584032709        0.8885043277
 O          0.3691858764       -2.9610177930        0.9972945867
 C         -1.9998547080       -2.4328559640        0.8042393616
 C         -2.6630559932       -1.0739293859        1.0424789867
 N         -3.9167843773       -0.8745743396        0.3606172847
 C         -3.9677094188       -0.9594501231       -1.0800255607
 C         -3.0576859661       -0.0203532389       -1.8813672945
 Cl        -1.4331416700       -0.7257529778       -2.1071743012
 C         -4.8798245017       -0.0082249321        0.9939557909
 C         -4.7092597972        1.5045058020        0.8012909305
 Cl        -5.3909216236        2.0469634602       -0.7591832829
 C         -1.5181793925       -0.0753785513        0.7928892585
 O         -1.6141053693        1.1205000153        0.6721837844
 C          1.8700541281       -0.6697560284       -0.1813805377
 C          3.1169234087       -0.0815937065       -0.2903297832
 H          9.0685591707        0.6629232506        0.0106216808
 H          8.2982548727        1.2183638508       -1.4771812081
 H          9.3703986515       -0.1776647565       -1.5097683341
 H          6.9652909760       -0.8674208855       -1.5935037106
 H          7.8093954658       -1.5062007185       -0.1847043619
 H          5.6428214927       -0.7311203004        0.5292754379
 H          6.8618551820        0.3405533939        1.2127686191
 H          5.3322061862        0.9936575799       -1.3558967462
 H          6.3645237016        2.0816750929       -0.4055124627
 H          2.7440070437        2.3902185146        1.9713428125
 H          0.5189265847        1.3335178123        2.1826555262
 H         -2.2071915132       -2.8043732974       -0.1993653767
 H         -2.2977957611       -3.2010326138        1.5153418504
 H         -2.8780513486       -0.9752572045        2.1162076656
 H         -4.9979983782       -0.7423594537       -1.3681880086
 H         -3.7547794727       -1.9897445993       -1.3874641248
 H         -3.4626911719        0.1338187400       -2.8805658217
 H         -2.9160313960        0.9388211527       -1.3888404556
 H         -5.8738706291       -0.2978023970        0.6381818584
 H         -4.8443859460       -0.2057178655        2.0697479459
 H         -3.6574893510        1.7903915247        0.8146992820
 H         -5.2555736439        2.0467934961        1.5722370857
 H          1.6254220673       -1.5243135707       -0.7920232211
 H          3.8202583982       -0.4971143287       -0.9937552353
  49
        -77.98681419
 C          7.0252619838       -0.7111994040        0.1530697099
 C          7.3424326575        0.5716289333        0.9117208713
 C          6.1050690841        1.4315543821        1.1722464067
 C          5.4992769206        2.0307429685       -0.1017668293
 O          4.7988724086        1.0963600649       -0.8979407740
 C          3.5891091345        0.6340803329       -0.4948885465
 C          2.8629705916        1.1017304545        0.5969238811
 C          1.6266682450        0.5568326264        0.8945750736
 C          1.0989292278       -0.4531064859        0.1072646890
 N         -0.1765740465       -1.0002365883        0.4105316636
 C         -0.4401552042       -2.3632737094        0.3974577461
 O          0.3874670619       -3.2228755562        0.2739342032
 C         -1.9310410970       -2.5402326629        0.5700530982
 C         -2.4329587092       -1.1759669853        1.0497046624
 N         -3.7734577379       -0.8372647041        0.6441919766
 C         -4.5324977989        0.0137878639        1.5263985597
 C         -4.2849340161        1.5257942803        1.4413243720
 Cl        -5.2036470876        2.2654364430        0.0985263578
 C         -4.1000514428       -0.7734682256       -0.7610226981
 C         -3.2878121353        0.1877222013       -1.6375681822
 Cl        -1.7893874947       -0.5817767821       -2.2311456668
 C         -1.2821911083       -0.2258592115        0.6714313734
 O         -1.3074362323        0.9798710363        0.6774876566
 C          1.8122199902       -0.9229964871       -0.9893792227
 C          3.0456601407       -0.3864427293       -1.2808350579
 H          7.9269183750       -1.3061915049        0.0258468250
 H          6.6176395140       -0.4862406243       -0.8281039831
 H          6.2951085357       -1.3057591995        0.6986298553
 H          7.7922848756        0.3165505668        1.8744952519
 H          8.0745477239        1.1567457310        0.3501464521
 H          5.3507162368        0.8273052436        1.6801251326
 H          6.3782248972        2.2586190759        1.8314199450
 H          6.2975711740        2.3968474494       -0.7537292491
 H          4.8479774539        2.8779093729        0.1484954503
 H          3.2426479577        1.8911604661        1.2256717474
 H          1.0704906325        0.9278667938        1.7412103762
 H         -2.3449277351       -2.7930241902       -0.4062328897
 H         -2.1535356256       -3.3584617201        1.2523233525
 H         -2.4346879182       -1.1732751249        2.1492570287
 H         -4.3128141841       -0.2950354941        2.5530761633
 H         -5.5945805779       -0.1790896036        1.3442884763
 H         -4.6328982865        2.0167679354        2.3494991357
 H         -3.2304723560        1.7463148729        1.2751970359
 H         -4.0268714062       -1.7780212718       -1.1931974029
 H         -5.1467070842       -0.4697523456       -0.8236924103
 H         -2.9870350286        1.0838409240       -1.0998904822
 H         -3.8589906876        0.4627090273       -2.5231714068
 H          1.4000125872       -1.7065248865       -1.6044976114
 H          3.6142951272       -0.7376743498       -2.1268911583
  49
        -77.98679806
 C          8.2971728032        0.9382952152       -1.5030839074
 C          6.8742973085        0.6097341925       -1.9402055213
 C          5.8102797282        1.1998766200       -1.0160265544
 C          5.8464135891        0.5933379591        0.3893769094
 O          4.7694683147        1.0307286037        1.1949027914
 C          3.5358723293        0.4888624813        1.0331874955
 C          2.5386768325        1.0170545740        1.8580289668
 C          1.2526408355        0.5275883795        1.8147483433
 C          0.9345512628       -0.4981265630        0.9322557041
 N         -0.3894122104       -1.0106833687        0.8820736642
 C         -0.6734190264       -2.3681832190        0.8169639244
 O          0.1370524379       -3.2472712182        0.9166008502
 C         -2.1624679855       -2.5125372077        0.6039300986
 C         -2.7371619175       -1.1324124499        0.9319651275
 N         -3.9294032191       -0.7745042629        0.2067598032
 C         -4.8627695683        0.1034335534        0.8677176012
 C         -4.5692581508        1.6090825917        0.8305057153
 Cl        -5.1151958883        2.3448843343       -0.7039750938
 C         -3.9000155565       -0.7259015475       -1.2360682578
 C         -2.8757412516        0.2055634424       -1.8955449939
 Cl        -1.2939068939       -0.5999392813       -2.0885012888
 C         -1.5073937144       -0.2106331787        0.8413431487
 O         -1.5067790127        0.9950048991        0.8197310605
 C          1.9107105670       -1.0202782333        0.0993852017
 C          3.2050078690       -0.5353781307        0.1500680106
 H          9.0092860697        0.5775758095       -2.2416112726
 H          8.5319964609        0.4709094789       -0.5504779318
 H          8.4248155260        2.0135479622       -1.4015289260
 H          6.7125388929        1.0045544776       -2.9454962177
 H          6.7513565637       -0.4749737883       -1.9887470377
 H          5.9476502601        2.2797925097       -0.9344815721
 H          4.8221930228        1.0268118458       -1.4483169227
 H          6.7355785172        0.9340677449        0.9253769721
 H          5.8720972008       -0.5023155100        0.3378493666
 H          2.8054072010        1.8119288223        2.5359612429
 H          0.4936874291        0.9425254125        2.4586884966
 H         -2.3196215015       -2.7674064512       -0.4443154837
 H         -2.5702383134       -3.3180290411        1.2116609084
 H         -3.0083640590       -1.1142199242        1.9974455964
 H         -4.9074389627       -0.1940623850        1.9199445087
 H         -5.8519636542       -0.0726641845        0.4330843336
 H         -5.1182464682        2.1201403217        1.6206246375
 H         -3.5017397562        1.8077816627        0.9255332356
 H         -3.7464351938       -1.7383885830       -1.6268884487
 H         -4.8918708945       -0.4020819305       -1.5570697790
 H         -2.6985128161        1.1053725698       -1.3110430666
 H         -3.2033446363        0.4749011352       -2.8986937873
 H          1.6626163100       -1.8115555167       -0.5898740210
 H          3.9408527013       -0.9688006796       -0.5078138945
  49
        -77.98679754
 C          7.8268957927       -0.8191589574        1.2600453069
 C          7.1405852357        0.4061148260        0.6707963822
 C          6.4408999297        0.0815796084       -0.6472037142
 C          5.6961648403        1.2973270411       -1.2032725540
 O          4.6736015193        1.7555259586       -0.3412007438
 C          3.5139725488        1.0593276569       -0.2331704144
 C          2.6302519578        1.5184727013        0.7476938471
 C          1.4153518671        0.9026708327        0.9487779808
 C          1.0562379710       -0.1852188848        0.1621389971
 N         -0.1975925383       -0.8241093782        0.3589111420
 C         -0.3490018393       -2.2030966186        0.3926972374
 O          0.5520508036       -2.9952538426        0.3882204978
 C         -1.8310851887       -2.4983900854        0.4340938343
 C         -2.4878158746       -1.1582923564        0.7745058863
 N         -3.7987462806       -0.9564238764        0.2086774160
 C         -4.7181101585       -0.1353884210        0.9597680546
 C         -4.5441648318        1.3806295870        0.8095393008
 Cl        -5.6556668256        2.2111763768        1.9288247733
 C         -3.9674059753       -0.9685290172       -1.2243062966
 C         -3.1525690971        0.0375080613       -2.0502752316
 Cl        -1.5428536218       -0.6182329517       -2.4616398125
 C         -1.3832075960       -0.1340780488        0.4594284577
 O         -1.5063809155        1.0624764844        0.3811288005
 C          1.9174849066       -0.6418579407       -0.8220879042
 C          3.1420506409       -0.0295072977       -1.0171366503
 H          8.3221200029       -0.5664304356        2.1943519429
 H          8.5730630894       -1.2078959466        0.5700901025
 H          7.1013934661       -1.6051447602        1.4581027150
 H          6.4016624037        0.7881113049        1.3777657264
 H          7.8785675222        1.1937931328        0.5027196259
 H          7.1733359858       -0.2431594796       -1.3889723269
 H          5.7358196652       -0.7360090045       -0.4843604413
 H          5.2958948818        1.0863997880       -2.2026402696
 H          6.3817765692        2.1461472450       -1.2804144186
 H          2.9256812755        2.3667828121        1.3441480195
 H          0.7426787085        1.2660902637        1.7092152827
 H         -2.1250085997       -2.8447558635       -0.5568601069
 H         -2.0520687831       -3.2919469554        1.1454169047
 H         -2.6129919160       -1.0979932800        1.8644815404
 H         -4.6166487762       -0.3940087775        2.0173601507
 H         -5.7339920924       -0.4047476917        0.6534675826
 H         -3.5305553836        1.6952879290        1.0562966696
 H         -4.8035867752        1.7155147247       -0.1945252645
 H         -3.7508687987       -1.9739841337       -1.6024972046
 H         -5.0257417070       -0.7762636426       -1.4144949484
 H         -2.9812327814        0.9675256553       -1.5111284730
 H         -3.6468304212        0.2376025947       -3.0002769423
 H          1.6348410515       -1.4816521198       -1.4368537695
 H          3.7886355888       -0.4090381397       -1.7919069197
  49
        -77.98679148
 C          5.6545866327        1.0885996945       -2.2393913594
 C          6.1840582357        2.1890974425       -1.3280160833
 C          5.4714187233        2.2376623386        0.0240954243
 C          5.7585900931        1.0200480547        0.9094510371
 O          5.1033213505       -0.1610303388        0.4928818154
 C          3.7653408114       -0.2934190901        0.6714842643
 C          2.9497349455        0.5834116926        1.3814522546
 C          1.5974181813        0.3228598503        1.5126008175
 C          1.0420583323       -0.8046682407        0.9306459261
 N         -0.3510928737       -1.0550891640        1.0521542881
 C         -0.8740114334       -2.3038304931        1.3601459824
 O         -0.2265191694       -3.2599255741        1.6848961313
 C         -2.3756553728       -2.2171267921        1.2126410860
 C         -2.6759961805       -0.7173803121        1.1515799032
 N         -3.8220734790       -0.3518711548        0.3584960503
 C         -3.8620966770       -0.7006947793       -1.0421991821
 C         -2.7255141377       -0.1889607648       -1.9355841880
 Cl        -1.3266359588       -1.2990003247       -1.9087528027
 C         -4.5458872699        0.8306112776        0.7541415237
 C         -3.9892839077        2.1878592495        0.3037754465
 Cl        -4.4750724700        2.5718514519       -1.3727828029
 C         -1.3085716991       -0.0996230200        0.8075030562
 O         -1.0927120090        1.0360773365        0.4633338118
 C          1.8463381897       -1.6852742217        0.2167177371
 C          3.1934896973       -1.4312259779        0.0945403314
 H          5.8154442505        0.1109067286       -1.7946493031
 H          6.1616196018        1.1194628835       -3.2012274802
 H          4.5872461065        1.2160095472       -2.4090542385
 H          7.2547642153        2.0449595604       -1.1649728381
 H          6.0522362852        3.1558546314       -1.8202314530
 H          5.7978990191        3.1274299140        0.5671407658
 H          4.3953204804        2.3170735132       -0.1421299002
 H          5.5087579819        1.2427101887        1.9547637422
 H          6.8222965558        0.7700825744        0.8603961577
 H          3.3507345398        1.4703190101        1.8453551373
 H          0.9734922879        1.0085046354        2.0643244197
 H         -2.6412150206       -2.7122579729        0.2785033028
 H         -2.8808337619       -2.7367534459        2.0246205591
 H         -2.8826822379       -0.3628269750        2.1716963897
 H         -4.7964748543       -0.2971110728       -1.4368330325
 H         -3.9123441123       -1.7911916396       -1.1400324373
 H         -3.0548382838       -0.1410057604       -2.9726068524
 H         -2.3579415011        0.7846272823       -1.6199192197
 H         -5.5723581184        0.7324051851        0.3865652742
 H         -4.5871777030        0.8420820568        1.8476976716
 H         -2.8999275829        2.2010254386        0.3385351341
 H         -4.3946205357        2.9864917342        0.9240816150
 H          1.4139331582       -2.5621210541       -0.2375508474
 H          3.8344058662       -2.1036664732       -0.4527173334
  49
        -77.98678667
 C          8.4083780797        0.7798494353        0.6253168542
 C          7.1456070305       -0.0685479546        0.7157392656
 C          6.3902822134       -0.1644208226       -0.6109719668
 C          5.6683460653        1.1373806477       -0.9695483825
 O          4.6973675863        1.5058308002       -0.0099565377
 C          3.5117739519        0.8486852911        0.0460593575
 C          2.6797957313        1.2077682869        1.1103010822
 C          1.4444799035        0.6214209677        1.2708516082
 C          1.0123873684       -0.3345940609        0.3595869681
 N         -0.2630911352       -0.9410748061        0.5132535951
 C         -0.4754622430       -2.3055082241        0.3740149495
 O          0.3895438408       -3.1269013914        0.2442972112
 C         -1.9675139297       -2.5415959423        0.4195347918
 C         -2.5540786255       -1.2335271438        0.9564189051
 N         -3.8702097110       -0.9052759127        0.4701481701
 C         -4.7249649239       -0.1445315063        1.3475084980
 C         -4.5268941666        1.3765125923        1.3890405412
 Cl        -5.3637422443        2.1833829774        0.0316074311
 C         -4.0882345605       -0.7460016018       -0.9484376218
 C         -3.2445685664        0.3014307466       -1.6854902891
 Cl        -1.6803267951       -0.3780784325       -2.2140295294
 C         -1.4127906087       -0.2227417732        0.7424875061
 O         -1.4822668109        0.9776260322        0.8331553077
 C          1.8222647492       -0.6903560756       -0.7064467434
 C          3.0672691449       -0.1087625939       -0.8617481824
 H          8.1714069051        1.8130586257        0.3855097813
 H          9.0753451991        0.3913600819       -0.1418090326
 H          8.9363791276        0.7678327368        1.5758307839
 H          7.4187872683       -1.0770217674        1.0335890823
 H          6.4766247842        0.3491885112        1.4705173013
 H          7.0836447935       -0.4080043083       -1.4182594855
 H          5.6546077999       -0.9680644805       -0.5394645193
 H          5.2209633000        1.0672566102       -1.9685915527
 H          6.3743210862        1.9711558547       -0.9722135107
 H          3.0312496655        1.9553388645        1.8034294500
 H          0.8119991420        0.9069801305        2.0963620127
 H         -2.2992441513       -2.7351684697       -0.6006536976
 H         -2.2083834993       -3.4147941082        1.0229368679
 H         -2.6416213739       -1.3144153612        2.0494435265
 H         -4.5734403445       -0.5207064724        2.3639346281
 H         -5.7622556952       -0.3561833536        1.0687410426
 H         -4.9630840000        1.7888152728        2.2982024314
 H         -3.4715133319        1.6414249842        1.3251347044
 H         -3.9468104512       -1.7128738822       -1.4449680992
 H         -5.1367437980       -0.4689086042       -1.0727986090
 H         -3.0161071779        1.1624782579       -1.0617869037
 H         -3.7552828162        0.6263677204       -2.5908952553
 H          1.4824969899       -1.4269126970       -1.4170888024
 H          3.6722980876       -0.4075682988       -1.7026118129
  49
        -77.98678132
 C          7.8118308276       -0.9880623260        0.2019257844
 C          7.0460208654        0.3283394918        0.1904252169
 C          6.1079519271        0.4247410034       -1.0107307707
 C          5.2930983411        1.7197523907       -0.9862893417
 O          4.4531887520        1.8179026151        0.1473176154
 C          3.3176983186        1.0807578407        0.2170745553
 C          2.7929734282        0.2950443108       -0.8059545356
 C          1.6087967685       -0.3934305304       -0.6170102405
 C          0.9423975871       -0.3152238584        0.5949974023
 N         -0.2792172083       -1.0236801592        0.7723668964
 C         -0.4301798364       -2.3685350980        0.4546031186
 O          0.4321489245       -3.0707198489        0.0064995862
 C         -1.8475912173       -2.7592810820        0.8178499169
 C         -2.5781196649       -1.4326105201        1.0387869279
 N         -3.4300648130       -1.0981885542       -0.0883416416
 C         -2.7980431220       -0.8635092672       -1.3642935056
 C         -2.2776679793        0.5573183118       -1.6346056284
 Cl        -1.1657722543        0.5201607055       -3.0280467163
 C         -4.6494559310       -0.3857577377        0.2048305655
 C         -4.4898882201        1.0123489410        0.8147736728
 Cl        -6.1048039417        1.6581710824        1.2034845986
 C         -1.4323686279       -0.4326478631        1.2365017074
 O         -1.5238975391        0.6915302494        1.6612442731
 C          1.4536891602        0.4665653814        1.6233508138
 C          2.6281520718        1.1589321210        1.4309398666
 H          8.4101344032       -1.0897275061       -0.7011173743
 H          7.1244925890       -1.8296613773        0.2535993533
 H          8.4765456240       -1.0350486405        1.0609889626
 H          6.4580952635        0.4187443312        1.1058309371
 H          7.7515652869        1.1618704382        0.1644443760
 H          6.6843067829        0.3976827698       -1.9376320146
 H          5.4324144660       -0.4330221810       -1.0050190301
 H          4.7125024874        1.8336897373       -1.9098897386
 H          5.9661793545        2.5771772877       -0.8959080101
 H          3.2856052287        0.2154977198       -1.7614217495
 H          1.2083858859       -0.9948294415       -1.4176433120
 H         -2.3025538737       -3.3680702074        0.0382178760
 H         -1.8119422966       -3.3562916311        1.7303037869
 H         -3.2120746047       -1.4504512844        1.9278576990
 H         -3.5224103626       -1.1191613355       -2.1448078677
 H         -1.9599402592       -1.5577627548       -1.4601480616
 H         -3.0843853294        1.2401347945       -1.8983915863
 H         -1.7131410663        0.9585878594       -0.7949049945
 H         -5.2182407838       -0.3090840995       -0.7245295132
 H         -5.2333128796       -0.9966892794        0.9027371849
 H         -4.0236690995        1.7138979772        0.1258755218
 H         -3.9172962577        0.9882372341        1.7410598478
 H          0.9289635325        0.5351733170        2.5627304335
 H          3.0408229115        1.7752437735        2.2134893009
  49
        -77.98675924
 C          8.8210367780        0.7190702902       -1.4743930643
 C          7.5378701059        0.2488283279       -0.8020877459
 C          7.1127486771        1.1898782182        0.3228081028
 C          5.8075866425        0.7445172122        0.9744967715
 O          4.7754784824        0.8771737934        0.0168518446
 C          3.5171689806        0.4958718915        0.3449064812
 C          3.1282555966       -0.0017205243        1.5850767563
 C          1.8102869432       -0.3587897955        1.8087485322
 C          0.8709272875       -0.2332024868        0.7981197570
 N         -0.4789181234       -0.6126065510        1.0355363606
 C         -0.8325795944       -1.8138735530        1.6357672333
 O         -0.0619077079       -2.6105541641        2.0946223137
 C         -2.3389543655       -1.9253137108        1.5786513564
 C         -2.8191229528       -0.5140301861        1.2347318716
 N         -4.0517477206       -0.4455683424        0.4921997890
 C         -4.1484079357       -1.0924284324       -0.7949640934
 C         -3.1427792364       -0.6757168251       -1.8746959044
 Cl        -1.6276049236       -1.6161426000       -1.7448641897
 C         -4.8806360788        0.7158636990        0.6991595971
 C         -4.5182927468        1.9933076630       -0.0697122904
 Cl        -5.1514771689        1.9542856724       -1.7404134842
 C         -1.5573195478        0.1521433259        0.6552113274
 O         -1.5002844960        1.2031169290        0.0671421034
 C          1.2498913759        0.2625374847       -0.4442018846
 C          2.5590274360        0.6269081735       -0.6637869817
 H          9.1079799742        0.0349852429       -2.2692164944
 H          9.6346846219        0.7684476191       -0.7536416455
 H          8.6858205683        1.7083777343       -1.9055084834
 H          6.7341766265        0.1971256891       -1.5377974086
 H          7.6859218124       -0.7546411852       -0.3959697591
 H          7.8886950935        1.2293370609        1.0897049786
 H          6.9737867993        2.1953915623       -0.0775194153
 H          5.5899648759        1.3722894609        1.8501487978
 H          5.8879350006       -0.3014740927        1.3011353198
 H          3.8391116753       -0.1140548108        2.3878888632
 H          1.5189058994       -0.7464226660        2.7717827359
 H         -2.5843847056       -2.6330778361        0.7867131538
 H         -2.7401503265       -2.3138440467        2.5129360066
 H         -2.9977323262        0.0296558480        2.1739088687
 H         -5.1483638667       -0.8786429665       -1.1770285560
 H         -4.0781891187       -2.1776718205       -0.6580632675
 H         -3.5448447051       -0.8830266306       -2.8652802333
 H         -2.8697333291        0.3741930018       -1.7996975979
 H         -5.9109205784        0.4383544552        0.4543231046
 H         -4.8491281132        0.9584053704        1.7658832660
 H         -3.4381911214        2.1257585800       -0.1327008666
 H         -4.9755897275        2.8610338279        0.4044145355
 H          0.5215961956        0.3621027911       -1.2317902498
 H          2.8719909939        1.0140879615       -1.6201623011
  49
        -77.98672213
 C          5.4975743262        2.7120905165       -2.5130039158
 C          5.7579836190        2.0397352319       -1.1713506647
 C          5.5305488329        0.5314055065       -1.2436316659
 C          5.7344854927       -0.1352699271        0.1186124918
 O          4.8321360463        0.3348836541        1.1008233154
 C          3.5369640560       -0.0649558976        1.0809582145
 C          2.9954051803       -1.0294668994        0.2350414221
 C          1.6560821550       -1.3612245927        0.3249805841
 C          0.8454896433       -0.7425655074        1.2628891796
 N         -0.5354318674       -1.0802442182        1.3305933881
 C         -0.9968090214       -2.3916813558        1.3596246460
 O         -0.3004606856       -3.3673571458        1.3369277219
 C         -2.5066588508       -2.3348896764        1.4628137948
 C         -2.8700687341       -0.8833510960        1.1415305350
 N         -3.4014858321       -0.7510244180       -0.2034081593
 C         -2.5266160315       -1.0659426558       -1.3070205542
 C         -1.6085044439        0.0593801187       -1.8109837721
 Cl        -0.3165342579       -0.6419376648       -2.8200006078
 C         -4.4153866907        0.2541545104       -0.4079928446
 C         -3.9875045351        1.7079952828       -0.1721577237
 Cl        -5.4133551865        2.7629102611       -0.3467446912
 C         -1.5416892999       -0.1412305443        1.3310840351
 O         -1.3898468405        1.0524312800        1.4033112817
 C          1.3743344128        0.2173218335        2.1168939472
 C          2.7062619363        0.5527098584        2.0208375667
 H          5.6670949702        3.7836012360       -2.4415826272
 H          4.4699781996        2.5478772573       -2.8303178163
 H          6.1597632386        2.3099269912       -3.2769760342
 H          6.7859062746        2.2345656329       -0.8572881138
 H          5.0935896654        2.4612525489       -0.4146587551
 H          4.5152838093        0.3409403382       -1.5974104835
 H          6.2277276084        0.0823973366       -1.9538385140
 H          6.7203601139        0.1270957378        0.5131804013
 H          5.6775014251       -1.2272284635        0.0314262066
 H          3.6001750308       -1.5335594855       -0.5011522137
 H          1.2462725157       -2.1058356302       -0.3386475206
 H         -2.9757380622       -3.0477181229        0.7865203679
 H         -2.7881753501       -2.6053575501        2.4814948989
 H         -3.6202065261       -0.4816003987        1.8260018257
 H         -3.1524292508       -1.4004290274       -2.1411810237
 H         -1.9007557137       -1.9114710276       -1.0120115727
 H         -2.1454918105        0.7676864011       -2.4407460703
 H         -1.1163447484        0.5878618911       -0.9966219318
 H         -4.7831807015        0.1487913545       -1.4311741890
 H         -5.2475271502        0.0308726248        0.2693164192
 H         -3.2512433722        2.0455776769       -0.8988988239
 H         -3.5927665231        1.8573914906        0.8321088944
 H          0.7422131162        0.7029474387        2.8427787022
 H          3.1373157863        1.2952755176        2.6729976474
  49
        -77.98672021
 C          5.5700961774        2.7099004487       -2.5044613266
 C          5.8054053776        2.0321512761       -1.1610082348
 C          5.5538253808        0.5277679496       -1.2368002675
 C          5.7372982908       -0.1434313620        0.1261515101
 O          4.8308484477        0.3344664569        1.1008170901
 C          3.5349802069       -0.0625895498        1.0766527932
 C          2.9922306482       -1.0204952947        0.2239760890
 C          1.6526392912       -1.3518259027        0.3121349000
 C          0.8428455706       -0.7388791728        1.2544031860
 N         -0.5374677170       -1.0788490225        1.3232262052
 C         -0.9962835923       -2.3912475827        1.3495865860
 O         -0.2982814743       -3.3654191061        1.3198857599
 C         -2.5057626694       -2.3375918446        1.4603126688
 C         -2.8731728422       -0.8861059455        1.1437082822
 N         -3.4098634101       -0.7520411715       -0.1988707907
 C         -2.5392468302       -1.0649540056       -1.3064249469
 C         -1.6222299905        0.0607508461       -1.8114088490
 Cl        -0.3356798410       -0.6390817707       -2.8282672702
 C         -4.4248811011        0.2532194583       -0.3977321534
 C         -3.9970727253        1.7069251316       -0.1610641549
 Cl        -5.4225768543        2.7624780808       -0.3345231026
 C         -1.5455098901       -0.1418103522        1.3305198965
 O         -1.3956393362        1.0518250963        1.4061569927
 C          1.3722095149        0.2163194569        2.1133197114
 C          2.7043773579        0.5511792256        2.0192582353
 H          4.5431441153        2.5633237632       -2.8320120941
 H          6.2330237581        2.2969630933       -3.2620264412
 H          5.7570327769        3.7783261023       -2.4303469744
 H          6.8333343241        2.2096254825       -0.8368593625
 H          5.1408191067        2.4643227294       -0.4104753386
 H          4.5380408453        0.3538893369       -1.5974949644
 H          6.2484295315        0.0683436002       -1.9428892933
 H          6.7222165261        0.1077022859        0.5303172776
 H          5.6696283801       -1.2345465430        0.0366924195
 H          3.5960789775       -1.5194783523       -0.5164767634
 H          1.2421210884       -2.0920379751       -0.3560059468
 H         -2.9772993646       -3.0500569733        0.7853953731
 H         -2.7814570882       -2.6100314344        2.4800943412
 H         -3.6217680707       -0.4874872768        1.8317013467
 H         -3.1683469286       -1.3969138853       -2.1390737073
 H         -1.9128663060       -1.9116498017       -1.0159158187
 H         -2.1611590131        0.7714695944       -2.4368199499
 H         -1.1257197383        0.5863202459       -0.9978368180
 H         -4.7957342160        0.1500007168       -1.4199648456
 H         -5.2549260977        0.0280734317        0.2815903317
 H         -3.2604720141        2.0450974133       -0.8871124223
 H         -3.6023826613        1.8551888860        0.8432938682
 H          0.7404298988        0.6980696116        2.8421247473
 H          3.1358614930        1.2900886144        2.6752605571
  49
        -77.98669986
 C          6.4025617883        2.0143052354        2.3411743709
 C          6.5722824582        2.5134255102        0.9103261992
 C          5.5667703058        1.8999987921       -0.0632123650
 C          5.8321938509        0.4167003586       -0.3319482364
 O          4.9405083525       -0.1222750621       -1.2882012687
 C          3.6657910478       -0.4218434233       -0.9312353370
 C          2.8388351946       -0.8560405373       -1.9714099530
 C          1.5273781706       -1.2008885908       -1.7356892726
 C          1.0177181737       -1.1279074344       -0.4444743673
 N         -0.3384193903       -1.4709080781       -0.1964150106
 C         -0.9486710834       -2.5949817290       -0.7367322722
 O         -0.3822977151       -3.4612193920       -1.3431477077
 C         -2.4227033578       -2.5122603859       -0.4134649647
 C         -2.5251120379       -1.4342635226        0.6684055256
 N         -3.7507391762       -0.6765936574        0.6665734542
 C         -4.1242850065        0.0749589561       -0.5085637011
 C         -3.1380686285        1.1319439649       -1.0205578025
 Cl        -1.9257058905        0.4133051963       -2.1178420348
 C         -4.2135964093       -0.1710623561        1.9349456692
 C         -3.5848959017        1.1293542726        2.4530352428
 Cl        -4.3488279938        2.5662790745        1.7142076849
 C         -1.1884126955       -0.6813639868        0.5410077893
 O         -0.8983890934        0.3704224444        1.0553891629
 C          1.8288501764       -0.7067118506        0.5961331442
 C          3.1438643306       -0.3495301790        0.3572216394
 H          6.6147391503        0.9507318894        2.4161179699
 H          5.3864968456        2.1914609846        2.6875942391
 H          7.0847747857        2.5397846743        3.0051387799
 H          6.4420681551        3.5974896848        0.8997966856
 H          7.5863776057        2.2985249179        0.5664158561
 H          4.5545610312        2.0264603931        0.3263975464
 H          5.6182929469        2.4252614845       -1.0193295245
 H          5.8024457465       -0.1695038796        0.5929873865
 H          6.8216495761        0.2963511926       -0.7828773316
 H          3.2543850738       -0.9094040360       -2.9648102774
 H          0.8962482332       -1.5276457655       -2.5462903879
 H         -2.9400935227       -2.2094157731       -1.3239220962
 H         -2.8136518175       -3.4817601015       -0.1106136124
 H         -2.4671236254       -1.9223661430        1.6519737360
 H         -5.0577271543        0.5867927795       -0.2669072086
 H         -4.3381982796       -0.6210969800       -1.3276921022
 H         -3.6646332743        1.8867858467       -1.6028640380
 H         -2.5858971588        1.6076968891       -0.2134835135
 H         -5.2973366926       -0.0336079569        1.8642278842
 H         -4.0279573398       -0.9447180758        2.6864171655
 H         -2.5198790152        1.1731553945        2.2252107131
 H         -3.7437136400        1.2236631916        3.5267074015
 H          1.4337781587       -0.6463652768        1.5981772764
 H          3.7464867819       -0.0236556314        1.1896550843
  49
        -77.98669943
 C          8.4897290771       -0.3262228612        1.8691771786
 C          7.9607726691       -0.1043036631        0.4576183634
 C          6.6060975144        0.5984298609        0.4698074688
 C          6.0822108256        0.8322887890       -0.9483558056
 O          4.8417318734        1.5099347827       -0.9676516352
 C          3.6960454102        0.8397405457       -0.6892496746
 C          2.5356312416        1.6192709615       -0.6770077488
 C          1.3051203458        1.0519158003       -0.4350139945
 C          1.2118755500       -0.3130391778       -0.1875815189
 N         -0.0573706821       -0.9042092844        0.0618145673
 C         -0.4816422513       -2.0780749210       -0.5557570609
 O          0.1741169815       -2.7147558730       -1.3325008019
 C         -1.8803821646       -2.3744526955       -0.0722225797
 C         -2.2433647706       -1.2382317161        0.8886905944
 N         -3.4328311974       -0.5305908748        0.4598547656
 C         -3.2447505785        0.3495530438       -0.6798262992
 C         -4.4535487846        0.3313210293       -1.6075165048
 Cl        -4.7505769895       -1.3198205829       -2.2043637246
 C         -4.3138872242       -0.0474255285        1.4957659212
 C         -3.8675588013        1.2138847580        2.2497602136
 Cl        -4.4395290854        2.7042741225        1.4417756029
 C         -0.9833790488       -0.3635939258        0.9233864098
 O         -0.8284747566        0.6374191317        1.5771816613
 C          2.3550835988       -1.0954966689       -0.1901463598
 C          3.5902683111       -0.5264038660       -0.4429502540
 H          9.4538799190       -0.8278375011        1.8408499535
 H          7.7997738134       -0.9401814715        2.4437099794
 H          8.6115726325        0.6239369944        2.3839900439
 H          8.6746386159        0.4978168675       -0.1085947085
 H          7.8652575463       -1.0670555970       -0.0501382713
 H          5.8861691745        0.0009381075        1.0331170383
 H          6.6941752376        1.5647730746        0.9703052157
 H          6.0183636944       -0.1131342212       -1.5011274377
 H          6.7637473981        1.4965223214       -1.4877717985
 H          2.6286644036        2.6757685465       -0.8705723764
 H          0.4182749111        1.6652148557       -0.4297717751
 H         -2.5676512512       -2.4098921327       -0.9194849881
 H         -1.8987320813       -3.3565194264        0.3996766967
 H         -2.4223248788       -1.6124307751        1.9004166782
 H         -2.3757517931        0.0073993134       -1.2458396263
 H         -3.0655496769        1.3914201474       -0.3811232321
 H         -5.3602908407        0.6552272933       -1.1003078620
 H         -4.2746653917        0.9618592068       -2.4776204967
 H         -5.2951858485        0.1315113060        1.0497334402
 H         -4.4310134729       -0.8552307738        2.2231263551
 H         -2.7806428423        1.2785807676        2.3088528819
 H         -4.2982301008        1.2338281376        3.2498296531
 H          2.2840518533       -2.1551261497       -0.0034128065
 H          4.4585038274       -1.1653042754       -0.4443672509
  49
        -77.98669559
 C          6.6118660997        4.0596382452        0.9294844112
 C          6.5913451190        2.9349581920       -0.0982807531
 C          5.9288364113        1.6783273578        0.4593833487
 C          5.9158244970        0.5456084816       -0.5688330810
 O          5.3298923413       -0.6391976743       -0.0672328465
 C          3.9817442007       -0.7352119789        0.0461028403
 C          3.5132625370       -1.9100995740        0.6417293093
 C          2.1646556748       -2.1311942195        0.8067221118
 C          1.2522516542       -1.1795138321        0.3660276531
 N         -0.1431745839       -1.3954903063        0.5358219445
 C         -0.7718442068       -2.5956576693        0.2127594191
 O         -0.2124371749       -3.5605628615       -0.2277673633
 C         -2.2433451395       -2.4397693440        0.5113660275
 C         -2.4182080384       -1.0107999846        1.0345750586
 N         -3.3553010474       -0.2533787885        0.2297990451
 C         -4.1942246278        0.6941606305        0.9234105136
 C         -3.5357814159        2.0124030923        1.3562429642
 Cl        -3.6464442190        3.2581732338        0.0768794456
 C         -2.8496606131        0.1693380144       -1.0641203511
 C         -3.9287590347        0.0993992705       -2.1378955776
 Cl        -4.5493038467       -1.5633057792       -2.2843401936
 C         -0.9953603260       -0.4372522912        1.0318655749
 O         -0.6721565512        0.6697075356        1.3847132154
 C          1.7030219518       -0.0164566623       -0.2368638590
 C          3.0586428630        0.2105482250       -0.3915953400
 H          7.0854415823        4.9464470372        0.5156224257
 H          7.1651757739        3.7561934798        1.8151649496
 H          5.5997554934        4.3195066828        1.2311783285
 H          6.0500631774        3.2658450431       -0.9878974206
 H          7.6136870801        2.6998622737       -0.4023421570
 H          6.4688468277        1.3364414599        1.3446050411
 H          4.9059858953        1.9068326013        0.7661889378
 H          6.9421410430        0.2582965638       -0.8150210238
 H          5.4199798652        0.8648433000       -1.4939710625
 H          4.2368850146       -2.6379524895        0.9716783036
 H          1.8164574242       -3.0410926287        1.2681343827
 H         -2.8272403276       -2.6021391058       -0.3964119239
 H         -2.5476662943       -3.1993331310        1.2309862267
 H         -2.7811645573       -1.0051365629        2.0660543152
 H         -4.5748507098        0.1943811391        1.8182070165
 H         -5.0535696119        0.9161973651        0.2860968684
 H         -4.0478524531        2.4293601872        2.2222514996
 H         -2.4769680031        1.8743437448        1.5775595661
 H         -2.4577852854        1.1955558700       -1.0471359467
 H         -2.0352406155       -0.4974225342       -1.3553857592
 H         -3.5186674397        0.3775413147       -3.1080353267
 H         -4.7782732999        0.7376117222       -1.9025387945
 H          0.9968282896        0.7235545023       -0.5792163583
 H          3.3749362950        1.1272476984       -0.8624462191
  49
        -77.98667176
 C          6.7549902924        1.8550313284        2.3513875946
 C          7.3959705148        0.9852171077        1.2753396650
 C          6.3741324368        0.3014406162        0.3678472720
 C          5.6562017158        1.2840817151       -0.5605459086
 O          4.7755510524        0.6311552343       -1.4538249872
 C          3.5673806083        0.1946259291       -1.0160287145
 C          3.0382113448        0.4040735718        0.2543202957
 C          1.7813097385       -0.0786260593        0.5725488361
 C          1.0371486257       -0.7686424386       -0.3699117517
 N         -0.2584378055       -1.2502004971       -0.0414830644
 C         -0.7035295476       -2.5215534193       -0.3779215851
 O         -0.0191451241       -3.3890074923       -0.8449910115
 C         -2.1756413167       -2.5917575612       -0.0432457200
 C         -2.4312393190       -1.3749484406        0.8495839474
 N         -3.7510407369       -0.8055854774        0.7491778193
 C         -4.2239108855       -0.3188561621       -0.5255147469
 C         -3.3943956729        0.7643941556       -1.2257785231
 Cl        -2.0906025627        0.0480640266       -2.2142693022
 C         -4.2826107064       -0.1649657837        1.9263729131
 C         -3.8454047014        1.2787500921        2.2079590671
 Cl        -4.8039992524        2.4507041487        1.2583080960
 C         -1.2129665521       -0.4751411083        0.5734294958
 O         -1.0745350826        0.6768321026        0.9026323686
 C          1.5532816992       -0.9786694577       -1.6434071953
 C          2.8066756144       -0.5048158020       -1.9576089762
 H          6.2206584739        2.6944648837        1.9138641607
 H          7.5181845371        2.2530484744        3.0158756554
 H          6.0564247135        1.2708867777        2.9469151933
 H          8.0694117892        1.5934882527        0.6676614548
 H          7.9955589626        0.2122345533        1.7605596585
 H          6.8795528457       -0.4375107650       -0.2576123752
 H          5.6403786942       -0.2310601159        0.9765760211
 H          6.3870466066        1.7769042158       -1.2085805206
 H          5.1240902696        2.0554173504        0.0066791089
 H          3.5879757850        0.9417835487        1.0099374422
 H          1.3790910014        0.0910592769        1.5591063149
 H         -2.7273264966       -2.5175296973       -0.9805119636
 H         -2.4281734501       -3.5427577075        0.4218582352
 H         -2.3079197646       -1.6814868909        1.8983494523
 H         -5.2201737143        0.0920061602       -0.3514756274
 H         -4.3369125437       -1.1642491485       -1.2138247803
 H         -4.0201738348        1.3311698107       -1.9137530551
 H         -2.9163480199        1.4399809327       -0.5203335395
 H         -5.3748135349       -0.1942107766        1.8580172161
 H         -3.9903179568       -0.7685068064        2.7912583008
 H         -2.7968968636        1.4325351116        1.9528845262
 H         -4.0179490685        1.5279265014        3.2544034146
 H          0.9727528118       -1.5122705451       -2.3785865731
 H          3.2247376637       -0.6563882178       -2.9397649339
  49
        -77.98666073
 C          6.3665796283       -0.6782850121       -2.7416425108
 C          6.3116988704        0.2897590366       -1.5670949984
 C          6.0439557972       -0.4351748880       -0.2498395849
 C          5.9212581779        0.5467076367        0.9176717287
 O          4.8545155231        1.4600145548        0.7550477236
 C          3.5734040325        1.0447653213        0.9214053709
 C          3.1769230898       -0.1971782516        1.4101941506
 C          1.8333693540       -0.4941798435        1.5488897311
 C          0.8716861788        0.4434439707        1.2096946328
 N         -0.5071146263        0.1274479700        1.3441619669
 C         -1.0382775066       -0.4990757363        2.4626831593
 O         -0.4356220966       -0.7310808351        3.4736018626
 C         -2.4837408101       -0.8237414158        2.1601726960
 C         -2.8122758435       -0.0156125783        0.9023895848
 N         -3.7758958681       -0.6224269572        0.0175732210
 C         -3.4946365718       -1.9101764042       -0.5694519451
 C         -2.2206298611       -2.0502691914       -1.4153560148
 Cl        -0.8114443860       -2.4620950634       -0.3982020435
 C         -4.6126186693        0.2678604957       -0.7510155186
 C         -3.9853810883        0.8533958728       -2.0215902789
 Cl        -5.1061716504        2.0425738459       -2.7344048912
 C         -1.4250791112        0.3471205851        0.3437935656
 O         -1.1793694752        0.8047795990       -0.7440870425
 C          1.2556552270        1.6887191746        0.7269291217
 C          2.5930390889        1.9814723069        0.5820144717
 H          6.5614331367       -0.1434662911       -3.6679284899
 H          5.4219725881       -1.2080791605       -2.8442622701
 H          7.1566472641       -1.4121482225       -2.5961221338
 H          7.2574981456        0.8314343783       -1.4947674360
 H          5.5204343315        1.0231679243       -1.7334978236
 H          5.1208184464       -1.0111800821       -0.3415768453
 H          6.8581629912       -1.1295508081       -0.0327290755
 H          6.8117073634        1.1803752907        0.9619588479
 H          5.8322385061        0.0107772525        1.8706714659
 H          3.9004135170       -0.9460131171        1.6899729844
 H          1.5341945672       -1.4597349883        1.9247656557
 H         -2.5480077048       -1.8956497081        1.9726849495
 H         -3.1218187520       -0.5942010372        3.0114223814
 H         -3.2431255809        0.9475096776        1.2089953660
 H         -4.3467019502       -2.1536351342       -1.2081225017
 H         -3.4614753689       -2.6662933067        0.2229604579
 H         -2.3251650585       -2.8683275203       -2.1272446991
 H         -1.9705188678       -1.1269647156       -1.9350853346
 H         -5.5190508879       -0.2802026077       -1.0273403855
 H         -4.9154254132        1.0934517647       -0.1011461315
 H         -3.8223430837        0.0848338078       -2.7770354924
 H         -3.0496769771        1.3686124972       -1.8065523289
 H          0.5087255665        2.4188526484        0.4587219557
 H          2.9117675439        2.9412879806        0.2080163826
  49
        -77.98661808
 C          7.7674130519       -0.9662150471        1.0957306726
 C          7.8055124702       -0.1849081755       -0.2133852702
 C          6.4266651105        0.2890430927       -0.6708466328
 C          5.8599250926        1.4023483839        0.2134042844
 O          4.6166300917        1.8817418020       -0.2601334648
 C          3.4901135435        1.1507736818       -0.0609123217
 C          2.3332060045        1.6573811783       -0.6591780565
 C          1.1247602649        1.0122869804       -0.5221396965
 C          1.0473978949       -0.1539815308        0.2299228854
 N         -0.1946298895       -0.8302672008        0.3788145343
 C         -0.3352222072       -2.2007117412        0.2057697842
 O          0.5648401180       -2.9677159133        0.0028939804
 C         -1.8090796987       -2.5229698872        0.2989680718
 C         -2.4410968710       -1.2718008220        0.9119378269
 N         -3.8048859280       -1.0163399478        0.5244535673
 C         -4.6433684919       -0.3356515999        1.4797006873
 C         -4.5357629885        1.1929562319        1.5573251882
 Cl        -5.5058439876        1.9845764905        0.2821305797
 C         -4.1305067268       -0.8370670636       -0.8706956517
 C         -3.4052147666        0.2802905501       -1.6297742740
 Cl        -1.8386804722       -0.2880543097       -2.2777265260
 C         -1.3762548205       -0.1868011352        0.6659091544
 O         -1.5130438081        1.0034909732        0.7996636484
 C          2.1850291188       -0.6604688723        0.8373831524
 C          3.4013256890       -0.0184612717        0.6893202452
 H          8.7571962951       -1.3484858893        1.3332625645
 H          7.0864911510       -1.8109886350        1.0151705184
 H          7.4442072445       -0.3373343157        1.9215943049
 H          8.4668003221        0.6776790898       -0.1052626421
 H          8.2229860921       -0.8267579275       -0.9917312561
 H          6.4933018891        0.6754998787       -1.6902462592
 H          5.7346777601       -0.5555904181       -0.6845155378
 H          6.5205997471        2.2735160138        0.1757134947
 H          5.7743097170        1.0805827590        1.2570888589
 H          2.4124689308        2.5650018310       -1.2357425578
 H          0.2424829869        1.4109652814       -0.9946450312
 H         -2.1707335835       -2.6955629959       -0.7147904610
 H         -1.9770841199       -3.4311769706        0.8749938047
 H         -2.4512280298       -1.3890100122        2.0054466575
 H         -4.4014796146       -0.7298080831        2.4715796427
 H         -5.6821692099       -0.6040712036        1.2624894513
 H         -4.9363802250        1.5511231657        2.5050182261
 H         -3.5045213882        1.5247362632        1.4365574280
 H         -3.9636153875       -1.7806689268       -1.4028787352
 H         -5.2002926916       -0.6247485866       -0.9163804333
 H         -3.1918327429        1.1373776335       -0.9954580839
 H         -3.9933942756        0.5950448165       -2.4904888897
 H          2.1282944787       -1.5666321812        1.4190952772
 H          4.2669920093       -0.4431259197        1.1714862873
  49
        -77.98660172
 C          5.8635650002        2.9668314289       -1.9661281752
 C          6.7256415251        1.7504871516       -1.6457578680
 C          5.9718607936        0.6655620406       -0.8776746943
 C          5.6531218706        1.0730227315        0.5628312853
 O          5.0178774644        0.0359298942        1.2846613203
 C          3.7023137854       -0.2256089712        1.0749773666
 C          2.8442030930        0.5148520145        0.2669719216
 C          1.5136866085        0.1550602502        0.1502648025
 C          1.0217533676       -0.9405915446        0.8401615362
 N         -0.3478973713       -1.3043629348        0.7220605204
 C         -0.7679956640       -2.6057753314        0.4801454173
 O         -0.0497611902       -3.5647490986        0.4250366301
 C         -2.2664469351       -2.5705844352        0.2819463633
 C         -2.6943297700       -1.1972470611        0.8032072992
 N         -3.8595456132       -0.6328401558        0.1712142152
 C         -4.6857294534        0.2363352155        0.9716062263
 C         -4.2400348460        1.6965168068        1.1251152136
 Cl        -4.7298297738        2.6824529637       -0.2826586726
 C         -3.8581846643       -0.3988889233       -1.2533612099
 C         -2.7619664596        0.5104725102       -1.8210779241
 Cl        -1.2757794250       -0.4151943603       -2.1815539721
 C         -1.3785728633       -0.3971913602        0.7995481987
 O         -1.2561620568        0.7939723584        0.9420746774
 C          1.8683480046       -1.6845692098        1.6540520666
 C          3.1942369373       -1.3305010020        1.7639912887
 H          5.5565653176        3.4830337090       -1.0600679840
 H          4.9726632511        2.6678344945       -2.5143946886
 H          6.4205981955        3.6703962927       -2.5802560728
 H          7.0860391382        1.3201002766       -2.5823247489
 H          7.5981431286        2.0631276206       -1.0679291571
 H          5.0460882368        0.4203385568       -1.4023758408
 H          6.5778445779       -0.2422423523       -0.8400936627
 H          5.0510165599        1.9874656895        0.5964206385
 H          6.5841129687        1.2547509644        1.1078575010
 H          3.1922860347        1.3752422045       -0.2814197352
 H          0.8593869808        0.7331546100       -0.4815155231
 H         -2.4576292227       -2.6683835214       -0.7868056369
 H         -2.7490709370       -3.4052646887        0.7871125385
 H         -2.9420419348       -1.2935573197        1.8703541642
 H         -4.7413829134       -0.1939097961        1.9763306543
 H         -5.6954798322        0.2191738491        0.5490982266
 H         -4.7225132733        2.1488866889        1.9908426780
 H         -3.1565274852        1.7731674449        1.2164795058
 H         -3.8134744609       -1.3614419144       -1.7758268240
 H         -4.8204358715        0.0560711123       -1.4956853279
 H         -2.4814091245        1.2991620406       -1.1270149023
 H         -3.0845292289        0.9465422419       -2.7654013621
 H          1.4902764969       -2.5415149689        2.1877069142
 H          3.8673492566       -1.8962454754        2.3879340883
  49
        -77.98660171
 C          5.9180566232        2.4509241602       -2.4836200265
 C          6.7667335119        1.3502218500       -1.8563783481
 C          5.9893047949        0.4818642025       -0.8680590208
 C          5.6319262667        1.2266970124        0.4204257454
 O          4.9812811271        0.3923643854        1.3588722518
 C          3.6717431800        0.0770771705        1.1892618563
 C          3.1482791359       -0.8265586438        2.1182793942
 C          1.8260472682       -1.2068006739        2.0681467648
 C          0.9987999509       -0.6941153839        1.0753574109
 N         -0.3670556090       -1.0858868143        1.0186927492
 C         -0.7798083812       -2.4093351755        1.1012539791
 O         -0.0597118310       -3.3462767018        1.3064640814
 C         -2.2727057463       -2.4360947876        0.8638817650
 C         -2.7151070031       -0.9788685138        1.0104020390
 N         -3.8626147967       -0.6005214015        0.2256248541
 C         -4.7106965269        0.4366571484        0.7582545166
 C         -4.2697427643        1.8914318702        0.5495854273
 Cl        -4.7202264306        2.4864257146       -1.0742573589
 C         -3.8220660954       -0.7338622219       -1.2112707111
 C         -2.7108406823        0.0106596518       -1.9608478386
 Cl        -1.2152345323       -0.9656189264       -2.0369078580
 C         -1.4001443974       -0.1959797135        0.8396269654
 O         -1.2825262600        0.9936838109        0.6812734861
 C          1.5063415606        0.2000346536        0.1472191630
 C          2.8329672067        0.5877030581        0.2028231466
 H          5.0396261542        2.0263268748       -2.9650553601
 H          6.4931909616        2.9853215439       -3.2360041990
 H          5.5911473511        3.1710103946       -1.7377780111
 H          7.1491060719        0.7066414640       -2.6513117679
 H          7.6255003576        1.7955463209       -1.3492977579
 H          5.0779664462        0.1118211720       -1.3423356820
 H          6.5920325117       -0.3865570841       -0.5937490543
 H          5.0263359017        2.1158658867        0.2141575247
 H          6.5480191449        1.5448613497        0.9268637216
 H          3.8064677557       -1.2149687077        2.8787793702
 H          1.4361245498       -1.9074415469        2.7886374485
 H         -2.4364959725       -2.8023319453       -0.1497042276
 H         -2.7672780209       -3.1195593022        1.5516857434
 H         -2.9921088200       -0.8046778897        2.0603276077
 H         -4.7937897161        0.2737530587        1.8372718311
 H         -5.7084746939        0.3060884167        0.3271770140
 H         -4.7763899402        2.5442436156        1.2595106029
 H         -3.1892565954        1.9966736854        0.6479645544
 H         -3.7627697959       -1.7968080094       -1.4722383932
 H         -4.7774317933       -0.3618016307       -1.5861019905
 H         -2.4493771848        0.9508219528       -1.4810577356
 H         -3.0075913714        0.1922907473       -2.9927713656
 H          0.8673601126        0.5984829339       -0.6237491696
 H          3.1933235556        1.2881138580       -0.5332062360
  49
        -77.98659397
 C          7.7189111302       -0.2120077046        1.8079785784
 C          7.1371938322        0.3627940730        0.5231416607
 C          6.0973602156        1.4443202885        0.8078700887
 C          5.4710041434        1.9757464304       -0.4833061597
 O          4.7815944331        0.9777341176       -1.2090782080
 C          3.5677670069        0.5442908994       -0.7851885766
 C          2.8296686604        1.0867434338        0.2629884288
 C          1.5893251631        0.5644370366        0.5836870068
 C          1.0694808277       -0.4977861931       -0.1372757441
 N         -0.2119776864       -1.0196274377        0.1860649744
 C         -0.4822078072       -2.3794016564        0.2582650470
 O          0.3415014146       -3.2493619387        0.1983960184
 C         -1.9764304457       -2.5384228551        0.4240303237
 C         -2.4788756730       -1.1422352979        0.7995251543
 N         -3.8102182209       -0.8267366349        0.3443297194
 C         -4.5853909174        0.0770949687        1.1600160373
 C         -4.2886835739        1.5704613987        0.9779654692
 Cl        -5.2162979221        2.5034171918        2.1810213626
 C         -4.1015970228       -0.8321234959       -1.0689202508
 C         -3.2752937045        0.0930389823       -1.9741466741
 Cl        -1.7696281742       -0.7053053433       -2.5109124024
 C         -1.3179707108       -0.2246505754        0.3766335218
 O         -1.3392063806        0.9780550223        0.2945152016
 C          1.7952803082       -1.0438375494       -1.1895580438
 C          3.0324282083       -0.5290194015       -1.5035938096
 H          8.4609708365       -0.9738915999        1.5825639259
 H          6.9361869684       -0.6644897174        2.4133467823
 H          8.1969907167        0.5701714580        2.3944130115
 H          7.9399100967        0.7864872676       -0.0843615821
 H          6.6675628173       -0.4342706001       -0.0559536754
 H          5.3168105591        1.0285980274        1.4484072473
 H          6.5620791173        2.2796858897        1.3355377158
 H          6.2594827343        2.3075290097       -1.1652378265
 H          4.8134725728        2.8288805335       -0.2758036856
 H          3.2021685572        1.9182933854        0.8394876144
 H          1.0238179818        0.9941586273        1.3955500416
 H         -2.3802040530       -2.8605377705       -0.5359566280
 H         -2.2099357463       -3.3050759081        1.1603492556
 H         -2.5040780854       -1.0636017204        1.8952142416
 H         -4.4188131412       -0.1853801728        2.2084207254
 H         -5.6435975708       -0.1002320620        0.9430335374
 H         -3.2327900361        1.7916315362        1.1309517442
 H         -4.6043452649        1.9244263319       -0.0031700957
 H         -4.0070384120       -1.8548787130       -1.4507021055
 H         -5.1514420052       -0.5480723645       -1.1711042567
 H         -2.9779356214        1.0074541522       -1.4637895184
 H         -3.8293274678        0.3304568429       -2.8815981747
 H          1.3901872837       -1.8688704775       -1.7531129177
 H          3.6108133316       -0.9378108705       -2.3164673537
  49
        -77.98659295
 C          5.7259719085        3.5904315143       -0.8407540253
 C          6.4360748858        2.8211751974        0.2679538671
 C          5.7007891070        1.5467033346        0.6806260867
 C          5.7562469935        0.4573700740       -0.3932538615
 O          5.1426842098       -0.7442673655        0.0306595687
 C          3.7889213579       -0.8453088298        0.0413292169
 C          2.8971690604        0.1165482818       -0.4243815917
 C          1.5344931490       -0.1169363453       -0.3792846471
 C          1.0444341429       -1.3038049473        0.1399697473
 N         -0.3576673739       -1.5339378565        0.1990152867
 C         -0.9507218451       -2.7143139056       -0.2298266542
 O         -0.3598643964       -3.6848306189       -0.6137644667
 C         -2.4485687173       -2.5292291828       -0.1406124387
 C         -2.6340997921       -1.2825319101        0.7265901252
 N         -3.8181357849       -0.5095320730        0.4507047811
 C         -4.0232464194        0.0388662571       -0.8688998231
 C         -2.9413459059        0.9728468810       -1.4238588321
 Cl        -1.6423753294        0.0493863035       -2.2340313738
 C         -4.4037652328        0.2123460436        1.5527496342
 C         -3.7824093179        1.5647342798        1.9259936854
 Cl        -4.3834551884        2.8758413172        0.8707128986
 C         -1.2571023605       -0.5973074197        0.6515066327
 O         -0.9839013381        0.5190140763        1.0171305839
 C          1.9256854441       -2.2708834810        0.6100811521
 C          3.2822239229       -2.0425477612        0.5546924701
 H          5.7006889885        3.0181312670       -1.7646041778
 H          6.2441167595        4.5254915415       -1.0398101766
 H          4.7042595467        3.8232151883       -0.5481658224
 H          7.4481211455        2.5667257079       -0.0544400396
 H          6.5206494562        3.4673987427        1.1441230769
 H          6.1545083028        1.1421253805        1.5880034326
 H          4.6596251242        1.7819276102        0.9109282851
 H          6.7977237637        0.1805286055       -0.5820185453
 H          5.3155711399        0.8008765986       -1.3353467755
 H          3.2435106701        1.0513865279       -0.8346667345
 H          0.8536210890        0.6326299565       -0.7480576573
 H         -2.8194619445       -2.3690029494       -1.1530763014
 H         -2.9313101179       -3.4201833516        0.2568049408
 H         -2.7142400987       -1.5998146542        1.7765549772
 H         -4.9566289739        0.6036622874       -0.8304502942
 H         -4.1694503905       -0.7818106294       -1.5806276750
 H         -3.3634481764        1.6314523056       -2.1814767805
 H         -2.4682264645        1.5637203489       -0.6431598877
 H         -5.4644075650        0.3627047732        1.3273627504
 H         -4.3423942709       -0.4288581274        2.4375290951
 H         -2.6966822612        1.5417444147        1.8320372915
 H         -4.0654436915        1.8425458320        2.9406742335
 H          1.5483069206       -3.1994400438        1.0068197037
 H          3.9820801349       -2.7827924157        0.9078659039
  49
        -77.98659018
 C          8.2606704837        1.9959148436        1.1710629509
 C          7.0307790522        1.3395731006        1.7874298312
 C          6.2588728283        0.4645958271        0.8010964935
 C          5.6220567919        1.2709395615       -0.3340482187
 O          4.8020603882        0.4736951037       -1.1654691940
 C          3.5682762318        0.0971433570       -0.7438963861
 C          2.9502285130        0.5079957742        0.4338361390
 C          1.6764086032        0.0647032405        0.7421097099
 C          1.0036037747       -0.7857236389       -0.1193965988
 N         -0.3089058613       -1.2280872433        0.1966912598
 C         -0.7216039749       -2.5456015257        0.0498275742
 O         -0.0009620087       -3.4667172518       -0.2170588915
 C         -2.2129838764       -2.5848649206        0.2911270293
 C         -2.5376105899       -1.2405141231        0.9472194479
 N         -3.8506905943       -0.7195438395        0.6634981231
 C         -4.4668872352        0.0993863304        1.6775885037
 C         -4.0586901916        1.5772039361        1.7418856809
 Cl        -4.9554286140        2.5569909167        0.5460435889
 C         -4.2365421088       -0.4613065759       -0.7039107093
 C         -3.3668244774        0.5039981702       -1.5186141392
 Cl        -1.9931023442       -0.3444603127       -2.2821913749
 C         -1.3086536166       -0.3780736979        0.6066145321
 O         -1.2005076893        0.8149928759        0.7459811560
 C          1.6084243177       -1.1969502846       -1.3015120992
 C          2.8785431692       -0.7619774820       -1.6045122405
 H          7.9796544489        2.7066611075        0.3985657177
 H          8.9108312796        1.2443460483        0.7294346135
 H          8.8232087403        2.5294249103        1.9336458224
 H          7.3459291919        0.7148734905        2.6259436949
 H          6.3672557510        2.1122151535        2.1834581936
 H          6.9264650432       -0.2820286377        0.3668827386
 H          5.4709598374       -0.0714230888        1.3352393848
 H          6.3936952241        1.6515534061       -1.0074016393
 H          5.0597085186        2.1246124746        0.0647243242
 H          3.4433699874        1.1735393468        1.1239909030
 H          1.2053580913        0.3904011424        1.6563575526
 H         -2.6984261647       -2.6782643760       -0.6804472623
 H         -2.4915668704       -3.4489377546        0.8913500970
 H         -2.4857054335       -1.3649710965        2.0384934181
 H         -4.2321830184       -0.3459462136        2.6493266906
 H         -5.5514535581        0.0400662634        1.5411385859
 H         -4.3053488324        1.9946357581        2.7174929373
 H         -2.9958404334        1.7044613714        1.5363628024
 H         -4.2962526698       -1.4118010552       -1.2463369451
 H         -5.2449752918       -0.0447641243       -0.6692124869
 H         -2.9430965879        1.2963982045       -0.9061140212
 H         -3.9465435970        0.9365936086       -2.3328139328
 H          1.0833738541       -1.8556403282       -1.9743262464
 H          3.3652189880       -1.0690219346       -2.5162159463