  17
        -16.82945688
 C         -2.5271887625        0.3344607014        0.0000442253
 C         -1.2674377088       -0.5228433860       -0.0000940793
 C         -0.0000019978        0.3282677532       -0.0000007276
 C          1.2674381959       -0.5228356875        0.0000932178
 C          2.5271950955        0.3344587684       -0.0000414408
 H         -2.5550760417        0.9714628563       -0.8815101391
 H         -2.5551294289        0.9710468985        0.8818983862
 H         -3.4171690854       -0.2907275618       -0.0001396823
 H         -1.2679694992       -1.1682939256       -0.8816601192
 H         -1.2679511412       -1.1685948656        0.8812566140
 H         -0.0000719876        0.9739901077        0.8816064238
 H          0.0000663107        0.9740474924       -0.8815707536
 H          1.2679354579       -1.1685394185       -0.8812926601
 H          1.2679739843       -1.1683232952        0.8816397868
 H          2.5550579319        0.9714385137        0.8815422777
 H          2.5550957141        0.9710763752       -0.8818826384
 H          3.4171803206       -0.2907488054        0.0000982613
  17
        -16.82855281
 C         -2.4154961941        0.2729347396        0.1161252787
 C         -0.9956461168       -0.1640822230        0.4560650151
 C         -0.0504373774        0.0268476830       -0.7282356826
 C          1.3639288851       -0.4928794569       -0.4687837306
 C          2.1187274829        0.3158956915        0.5799645716
 H         -2.4338314011        1.3241911672       -0.1637923446
 H         -3.0748448378        0.1339643463        0.9699717272
 H         -2.8057485384       -0.3083928458       -0.7167671448
 H         -1.0002268390       -1.2175694839        0.7460597837
 H         -0.6402369639        0.4153648306        1.3095420892
 H         -0.0024394102        1.0882377056       -0.9836451110
 H         -0.4634366445       -0.5009721253       -1.5918768177
 H          1.9236444089       -0.4607941692       -1.4068870525
 H          1.3111783304       -1.5373017345       -0.1523217206
 H          2.1489018571        1.3668801231        0.3000797751
 H          3.1413962969       -0.0438522915        0.6699970687
 H          1.6444916454        0.2321841139        1.5542507694
  17
        -16.82760260
 C         -1.8921959226        0.6604732006        0.3302434417
 C         -1.1089134132       -0.1950940362       -0.6585597977
 C         -0.0000083240       -1.0174905042        0.0000621427
 C          1.1089218410       -0.1950349833        0.6585659776
 C          1.8921965322        0.6604403187       -0.3303037752
 H         -2.7289903850        1.1437763175       -0.1695443396
 H         -1.2640457029        1.4358004784        0.7611513218
 H         -2.2842661474        0.0459330837        1.1381481569
 H         -0.6842217927        0.4424916801       -1.4354914778
 H         -1.7984962452       -0.8875185696       -1.1482724174
 H          0.4494092983       -1.6639845083       -0.7583344653
 H         -0.4494188912       -1.6638676016        0.7585614905
 H          1.7985118707       -0.8874696225        1.1482554616
 H          0.6842923705        0.4426427191        1.4354673719
 H          2.7290741020        1.1437315834        0.1693524048
 H          1.2640699694        1.4357983638       -0.7611142483
 H          2.2840730526        0.0458646249       -1.1382744576
  17
        -16.82558907
 C         -1.6616062191        0.7757602243       -0.4914083420
 C         -1.3630030443       -0.5492037120        0.1990652141
 C          0.0300204621       -0.6206344149        0.8276657088
 C          1.1830091218       -0.5521941940       -0.1841795133
 C          1.8020373850        0.8369464096       -0.2991659421
 H         -1.0182450169        0.9182173812       -1.3555541385
 H         -1.5125525962        1.6060602069        0.1957638036
 H         -2.6943910234        0.7967154099       -0.8335826237
 H         -1.4717842496       -1.3634468495       -0.5216982145
 H         -2.1029488091       -0.7095011157        0.9876552434
 H          0.0942201016       -1.5618160281        1.3788705400
 H          0.1376627909        0.1879442655        1.5537339973
 H          0.8257363373       -0.8752214686       -1.1641229162
 H          1.9680899399       -1.2491539459        0.1179387636
 H          2.6036030187        0.8340166632       -1.0352885041
 H          2.2203726410        1.1442285022        0.6572850641
 H          1.0639439257        1.5746942223       -0.6003663176
  17
        -16.82497720
 C         -2.3519355626       -0.2705220717       -0.0625691851
 C         -1.0048190145        0.2911969745       -0.5039612845
 C         -0.0161772884        0.4232160772        0.6670852319
 C          1.2221005241       -0.4614612684        0.5163655540
 C          2.1640903737        0.0350904790       -0.5742765828
 H         -3.0238751057       -0.3675318163       -0.9127895489
 H         -2.8195059385        0.3856078128        0.6685407905
 H         -2.2263385784       -1.2528330086        0.3879702594
 H         -1.1640581784        1.2641191501       -0.9722958439
 H         -0.5862441771       -0.3692971816       -1.2652346712
 H         -0.5253697130        0.1516887942        1.5940369396
 H          0.3082705071        1.4605406230        0.7702913066
 H          0.9099807946       -1.4848403056        0.2953574467
 H          1.7617177065       -0.4795519919        1.4664391609
 H          1.6635577819        0.0638918367       -1.5390826730
 H          3.0288879734       -0.6194301000       -0.6578551369
 H          2.5149808005        1.0388636147       -0.3435255786
