  9
        -11.38852245
 C         -1.1694503577       -0.2440709183       -0.0000002157
 O         -0.0000007864        0.5320090734       -0.0000066507
 C          1.1694485395       -0.2440713244        0.0000024675
 H         -2.0066504125        0.4507123855       -0.0000181925
 H         -1.2243672841       -0.8824236186       -0.8912809990
 H         -1.2243758340       -0.8823050915        0.8913490233
 H          1.2243641577       -0.8823628148        0.8913117256
 H          2.0066476306        0.4507332855        0.0000354502
 H          1.2244158913       -0.8823667819       -0.8913182713