  29
        -47.52586349
 O         -0.1304013973        0.4334040080       -1.8127519973
 C          0.4657920739        0.8003670308       -0.8203581568
 N          0.0263418551        1.7946594945       -0.0183790576
 N         -1.2302306285        2.3873466128       -0.1840761428
 C         -2.2265785498        1.8167728321        0.7386387936
 C         -2.3537476956        0.3271030951        0.5710329104
 C         -1.5163371305       -0.5293232798        1.2755391699
 C         -1.5427558338       -1.8913607282        1.0348897720
 C         -2.4067504121       -2.4110571185        0.0874396335
 C         -3.2471581062       -1.5648902999       -0.6157629906
 C         -3.2167560276       -0.2033819049       -0.3791197347
 C          1.7761751558        0.2340202932       -0.3581453435
 N          2.2699183825        0.7063364434        0.7860366121
 C          3.4052765649        0.1830653816        1.2132649598
 C          4.0653787048       -0.8183479993        0.5148252960
 C          3.4596060797       -1.2389134977       -0.6619252382
 N          2.3259053842       -0.7178390772       -1.0933681362
 H          0.5465981176        2.0405279659        0.8125682480
 H         -1.5036194537        2.1680535897       -1.1455911872
 H         -3.1683340021        2.3249388970        0.5260113943
 H         -1.9072440544        2.0712775935        1.7535184112
 H         -0.8386472113       -0.1273971541        2.0169676815
 H         -0.8820163266       -2.5466229743        1.5841833293
 H         -2.4224038145       -3.4734164781       -0.1056112608
 H         -3.9208819448       -1.9665213814       -1.3580126973
 H         -3.8635718280        0.4571849141       -0.9393383316
 H          3.7889874516        0.5827230598        2.1440312143
 H          4.9908977624       -1.2429699716        0.8666983838
 H          3.8888677282       -2.0150616482       -1.2824810638
  29
        -47.52285538
 O          1.0862554970        2.7776851549       -0.2423222791
 C          1.0458234315        1.5666820433       -0.3446525659
 N         -0.0671422643        0.8939390189       -0.6995648051
 N         -1.2670239762        1.5468262363       -1.0105519260
 C         -2.2579255782        1.4123587035        0.0611026937
 C         -2.6580781169       -0.0317968982        0.2075209061
 C         -3.0156857667       -0.7631660460       -0.9192718595
 C         -3.3730760389       -2.0939075374       -0.8056846068
 C         -3.3807451268       -2.7079043609        0.4362646527
 C         -3.0247439844       -1.9859290030        1.5618030289
 C         -2.6603062705       -0.6550165152        1.4469313937
 C          2.2134561952        0.6525110592       -0.1146138602
 N          3.3392065600        1.1937632205        0.3206769713
 C          4.3611796879        0.3835295632        0.5266367421
 C          4.2758871919       -0.9842948751        0.3028765383
 C          3.0476473117       -1.4513489694       -0.1448564990
 N          2.0227564694       -0.6445070432       -0.3528319485
 H         -0.0515543982       -0.1120069475       -0.7954590202
 H         -1.0192837720        2.5319665585       -1.1274853733
 H         -3.1229609405        2.0082409179       -0.2438876135
 H         -1.8879782261        1.7997855393        1.0213212279
 H         -3.0029812293       -0.2772875784       -1.8831472542
 H         -3.6490983088       -2.6544027447       -1.6868603580
 H         -3.6626952682       -3.7466240193        0.5259719301
 H         -3.0269382109       -2.4600930350        2.5323649347
 H         -2.3787118244       -0.0961866623        2.3283456557
 H          5.2706314731        0.8515457024        0.8811161936
 H          5.1107488426       -1.6449291347        0.4678658516
 H          2.8701884016       -2.5007516097       -0.3453985894
  29
        -47.52283017
 O          1.0552705976        2.7051945153       -0.7077459103
 C          1.0332554266        1.5891870866       -0.2255729387
 N         -0.0402852498        1.0832213544        0.4139042857
 N         -1.2226253703        1.8143160026        0.5854266490
 C         -2.2794313051        1.3659177419       -0.3291622250
 C         -2.6537145524       -0.0539111194        0.0013726098
 C         -3.1458496854       -0.3576591393        1.2653528582
 C         -3.4664423649       -1.6609258355        1.5971568104
 C         -3.2986195006       -2.6756466249        0.6687763341
 C         -2.8047418398       -2.3811896487       -0.5898576453
 C         -2.4796156384       -1.0763563006       -0.9202257522
 C          2.1849355805        0.6270601535       -0.2512456556
 N          3.2764323690        0.9949092124       -0.9016080594
 C          4.2823615994        0.1400726586       -0.9295701568
 C          4.2145205929       -1.1005710421       -0.3094667636
 C          3.0217490061       -1.3915732596        0.3385586232
 N          2.0133769529       -0.5390572350        0.3699958213
 H         -0.0115774612        0.1540383161        0.8101961566
 H         -0.9768981595        2.7844202030        0.3749841412
 H         -1.9744645411        1.4411965343       -1.3826720660
 H         -3.1319491091        2.0290305606       -0.1617042826
 H         -3.2679284028        0.4374112468        1.9853220332
 H         -3.8498809417       -1.8875608028        2.5812289089
 H         -3.5514641122       -3.6934718111        0.9266716460
 H         -2.6692085447       -3.1688641532       -1.3164510243
 H         -2.0899980179       -0.8511474891       -1.9030994195
 H          5.1641347387        0.4661095093       -1.4662174963
 H          5.0361240073       -1.7970816730       -0.3302791816
 H          2.8600329350       -2.3325116270        0.8498646330
  29
        -47.52281707
 O          1.0685982853        2.5511444961       -1.1172580331
 C          1.0138173192        1.5548252574       -0.4226502866
 N         -0.1124163140        1.1485771675        0.1970633913
 N         -1.3190641633        1.8520991154        0.0954968774
 C         -2.2582573625        1.1960783055       -0.8238030076
 C         -2.6317732678       -0.1519979693       -0.2691150118
 C         -2.2160070734       -1.3214969273       -0.8898891068
 C         -2.5373959020       -2.5551772061       -0.3496986688
 C         -3.2707203975       -2.6295872664        0.8214150233
 C         -3.6812258777       -1.4661249407        1.4516866355
 C         -3.3628210508       -0.2344744735        0.9099323997
 C          2.1772169851        0.6503724094       -0.1370822087
 N          3.3254028012        0.9212528277       -0.7352573148
 C          4.3422453232        0.1159995516       -0.4882172313
 C          4.2290145022       -0.9775922721        0.3600794247
 C          2.9791320945       -1.1776693459        0.9298752880
 N          1.9594681177       -0.3742429313        0.6863072722
 H         -0.1103313358        0.3183602043        0.7733750548
 H         -1.0689777447        2.7726690160       -0.2729412751
 H         -1.8377489004        1.0864938374       -1.8335996976
 H         -3.1380324300        1.8417781168       -0.8756042645
 H         -1.6401031329       -1.2672161146       -1.8032003083
 H         -2.2126058291       -3.4591357636       -0.8438753644
 H         -3.5215328656       -3.5918091540        1.2429176884
 H         -4.2520073313       -1.5206616113        2.3670277955
 H         -3.6742011512        0.6756473012        1.4000572474
 H          5.2704418988        0.3606170921       -0.9885638138
 H          5.0592624076       -1.6333700300        0.5634259471
 H          2.7791854136       -2.0033189536        1.6015742957
  29
        -47.52281202
 O          1.0766845097        2.0724020146       -1.8576221802
 C          1.0257944239        1.3320334773       -0.8945754845
 N         -0.0885695180        1.1574727850       -0.1560031538
 N         -1.2871588548        1.8237651549       -0.4392684088
 C         -2.2609998788        0.9420376124       -1.0980532719
 C         -2.6416664796       -0.1643008715       -0.1520079081
 C         -2.1497644818       -1.4506759847       -0.3264054691
 C         -2.4722095598       -2.4534302305        0.5719587987
 C         -3.2846797679       -2.1766798574        1.6575936078
 C         -3.7721952661       -0.8933344883        1.8429743545
 C         -3.4510034149        0.1074092187        0.9442077820
 C          2.1822348053        0.5270684745       -0.3769789172
 N          1.9667981666       -0.2116103521        0.7107681092
 C          2.9796163281       -0.9304929856        1.1601539306
 C          4.2204005329       -0.9279005641        0.5374693411
 C          4.3319666677       -0.1278072819       -0.5920106231
 N          3.3218188355        0.5914872565       -1.0454459243
 H         -0.0839707133        0.5362493059        0.6411646191
 H         -1.0336550686        2.5843162332       -1.0741478655
 H         -1.8657897843        0.5208795285       -2.0334816734
 H         -3.1299962401        1.5623448681       -1.3277406797
 H         -1.5123994886       -1.6697319110       -1.1717914372
 H         -2.0872439194       -3.4517933392        0.4239212884
 H         -3.5376905049       -2.9589750823        2.3579344642
 H         -4.4051867584       -0.6735802148        2.6901395154
 H         -3.8237220460        1.1103210391        1.0885392517
 H          2.7816681248       -1.5229648932        2.0448556052
 H          5.0452402584       -1.5132053569        0.9085948835
 H          5.2533553450       -0.0556537401       -1.1556180798
  29
        -47.52280984
 O          1.0344648862        2.6960115625       -0.7414611189
 C          1.0169045012        1.5907711091       -0.2353720288
 N         -0.0466559079        1.1015665450        0.4335208436
 N         -1.2307751757        1.8306135976        0.5966795045
 C         -2.2851444655        1.3760211340       -0.3217131380
 C         -2.6448325031       -0.0470221408        0.0086463764
 C         -3.4353165740       -0.3282112910        1.1158460890
 C         -3.7322134740       -1.6369141860        1.4506150343
 C         -3.2378484712       -2.6796470030        0.6844991727
 C         -2.4436096971       -2.4079843251       -0.4159233643
 C         -2.1467242124       -1.0979316917       -0.7501036981
 C          2.1654450675        0.6243074400       -0.2600409911
 N          3.2591246337        0.9881661087       -0.9088991919
 C          4.2606877663        0.1282766579       -0.9384152235
 C          4.1859308844       -1.1138027172       -0.3219864787
 C          2.9913836857       -1.4003531893        0.3247297007
 N          1.9875282248       -0.5426090074        0.3579472625
 H         -0.0160937844        0.1762772336        0.8389590727
 H         -0.9877548868        2.7998564528        0.3794409374
 H         -1.9725621831        1.4527541506       -1.3729561193
 H         -3.1404720077        2.0342754911       -0.1564983961
 H         -3.8140666479        0.4862595788        1.7149209742
 H         -4.3510524274       -1.8454824799        2.3109821645
 H         -3.4712492833       -3.7015338794        0.9447935020
 H         -2.0535956997       -3.2172603665       -1.0157489769
 H         -1.5246737155       -0.8892232718       -1.6094754473
 H          5.1442900996        0.4510491217       -1.4739787621
 H          5.0037491081       -1.8147469428       -0.3447625738
 H          2.8243328496       -2.3419179608        0.8332050266
  29
        -47.52201574
 O          1.0766034456       -1.0735015816       -1.2054019285
 C          1.4006926568       -0.0984026587       -0.5563145176
 N          0.5074911873        0.7392460883        0.0117848208
 N         -0.8713385298        0.5869358873       -0.1688479460
 C         -1.5231357259       -0.0296855530        0.9949967036
 C         -2.9359934431       -0.3865159321        0.6306485657
 C         -3.1847558619       -1.5307214261       -0.1182921098
 C         -4.4765681333       -1.8623716246       -0.4842256536
 C         -5.5342166602       -1.0527383701       -0.1051979326
 C         -5.2936199444        0.0899926583        0.6378707533
 C         -4.0002246319        0.4230417480        1.0011726955
 C          2.8190354908        0.3216698343       -0.3030853590
 N          3.0046977460        1.4824399964        0.3242981424
 C          4.2530884188        1.8524621060        0.5475674189
 C          5.3346613234        1.0769336606        0.1530769705
 C          5.0259414875       -0.1177450833       -0.4840379667
 N          3.7798850527       -0.4915941046       -0.7092887423
 H          0.8261458784        1.5704072314        0.4910756833
 H         -0.9826920554       -0.0344854687       -0.9740809405
 H         -1.5050432607        0.7038992217        1.8065111137
 H         -0.9832535645       -0.9311558424        1.3222258002
 H         -2.3611185035       -2.1664017596       -0.4117152947
 H         -4.6589246193       -2.7546926661       -1.0647444469
 H         -6.5435843141       -1.3124717687       -0.3883897339
 H         -6.1156910041        0.7250112865        0.9342775620
 H         -3.8148567573        1.3170323164        1.5782968566
 H          4.3808988395        2.7993316750        1.0575533911
 H          6.3514167060        1.3842872143        0.3327737127
 H          5.7929557581       -0.8001959609       -0.8270153973
  29
        -47.52190442
 O          1.0650529035       -0.7329135359       -1.6771520303
 C          1.4516016566       -0.2000475304       -0.6558347112
 N          0.6655713869       -0.0163445388        0.4260541268
 N         -0.6432156689       -0.5071052811        0.4910027901
 C         -1.6454239079        0.5518046851        0.3428704660
 C         -3.0230123150       -0.0481155375        0.3965730078
 C         -3.3435461450       -0.9543220068        1.4003219043
 C         -4.6068429597       -1.5129334098        1.4613869534
 C         -5.5656655841       -1.1684981684        0.5227736352
 C         -5.2528613619       -0.2670930163       -0.4793219266
 C         -3.9858436440        0.2874330453       -0.5443407593
 C          2.8437948134        0.3178490923       -0.4404952683
 N          3.1473663471        0.7512928597        0.7825654721
 C          4.3731431011        1.2059949468        0.9725982920
 C          5.3147405127        1.2384726328       -0.0467190731
 C          4.8884007835        0.7716099566       -1.2831863945
 N          3.6645146547        0.3163607423       -1.4777725867
 H          1.0592576185        0.3679176534        1.2746605199
 H         -0.7366812228       -1.1682914756       -0.2837008513
 H         -1.5140665669        1.1194099126       -0.5896293628
 H         -1.5084502740        1.2409635297        1.1852172738
 H         -2.5897792550       -1.2208339122        2.1250019685
 H         -4.8461526120       -2.2182703785        2.2437399835
 H         -6.5531074940       -1.6032952207        0.5713705125
 H         -5.9951820491        0.0028285279       -1.2160883745
 H         -3.7449985189        0.9867763735       -1.3323361489
 H          4.5984672757        1.5520479147        1.9738360676
 H          6.3147239486        1.6059551237        0.1132690184
 H          5.5398378617        0.7589215590       -2.1475918851
  29
        -47.52141231
 O          0.6592490719       -0.3081291425        1.3624808095
 C          1.1345659076        0.3354683757        0.4466226730
 N          0.4093120072        1.1633122088       -0.3343759833
 N         -0.9343080886        1.4583912135       -0.0876263981
 C         -1.8652216517        0.8265591859       -1.0357274327
 C         -2.8696944379       -0.0828280357       -0.3783302638
 C         -4.2224230267        0.0409903721       -0.6670128082
 C         -5.1482838831       -0.7978904055       -0.0723124749
 C         -4.7314126117       -1.7678035835        0.8230253936
 C         -3.3848205270       -1.8952316996        1.1183547499
 C         -2.4574698526       -1.0603079234        0.5209386242
 C          2.5811625292        0.3048892556        0.0518990344
 N          3.3536853017       -0.6006698824        0.6290230644
 C          4.6272246604       -0.6204480201        0.2816361605
 C          5.1521561417        0.2647154652       -0.6509117707
 C          4.2546132872        1.1669480815       -1.2051856924
 N          2.9795111956        1.1906844978       -0.8605567628
 H          0.8850904184        1.7370478336       -1.0189683851
 H         -1.1346592337        1.1358944891        0.8604609749
 H         -1.2900287497        0.2536651003       -1.7732898316
 H         -2.3851673963        1.6309053628       -1.5677387946
 H         -4.5523304475        0.7989437417       -1.3635329109
 H         -6.1976417405       -0.6908747664       -0.3059034005
 H         -5.4540443124       -2.4206956344        1.2900565066
 H         -3.0516457736       -2.6486884711        1.8164026172
 H         -1.4101029966       -1.1705469575        0.7656382649
 H          5.2377673001       -1.3700063181        0.7685218698
 H          6.1924649327        0.2520284375       -0.9303922678
 H          4.5569201254        1.8958987993       -1.9469271479
  29
        -47.51759502
 O          0.8893413361        1.7594506468       -2.0300795924
 C          0.9188753702        1.3086666569       -0.9100092564
 N         -0.0457856089        1.4627834788        0.0321283386
 N         -1.2758704610        2.0419458537       -0.2908668608
 C         -2.1861169441        1.1315072446       -0.9913615037
 C         -2.5262885648       -0.0789987567       -0.1624002070
 C         -1.7139971893       -1.2068010844       -0.2017192101
 C         -1.9665194777       -2.2836308276        0.6298851157
 C         -3.0344347512       -2.2457803201        1.5101461369
 C         -3.8489633135       -1.1266769228        1.5563059330
 C         -3.5919511830       -0.0477400346        0.7294264852
 C          2.0622199775        0.4835171678       -0.3723411725
 N          1.8213909331       -0.2484779593        0.7147464258
 C          2.8120825548       -0.9940741170        1.1725385950
 C          4.0553043671       -1.0249349980        0.5573080166
 C          4.1982892500       -0.2201747725       -0.5658403184
 N          3.2104748802        0.5247797415       -1.0265575069
 H          0.0283835685        0.8437604502        0.8385885319
 H         -1.7016188626        2.3950876146        0.5623362514
 H         -1.6891620568        0.8470772430       -1.9214184279
 H         -3.0790689406        1.7110373004       -1.2309668936
 H         -0.8834473115       -1.2411972191       -0.8928559136
 H         -1.3286271328       -3.1543556288        0.5891880479
 H         -3.2337726293       -3.0871812801        2.1572153723
 H         -4.6857070189       -1.0943707180        2.2387529936
 H         -4.2281264199        0.8259030554        0.7686936453
 H          2.5919121525       -1.5808688545        2.0558897304
 H          4.8597775144       -1.6372116677        0.9295674747
 H          5.1277666427       -0.1660929635       -1.1178834891
  29
        -47.51759233
 O          0.8683584363        2.2248770535       -1.4639197194
 C          0.8911395565        1.5124589457       -0.4885701188
 N         -0.0912032953        1.4117873276        0.4420243157
 N         -1.3287009209        2.0326414919        0.2491912082
 C         -2.1913090544        1.3354595456       -0.7092684906
 C         -2.5078185289       -0.0696189889       -0.2694241013
 C         -1.6592029726       -1.1177704771       -0.6077559374
 C         -1.8914849698       -2.3934681733       -0.1247005839
 C         -2.9755217339       -2.6364110344        0.7014987390
 C         -3.8266375772       -1.5987500085        1.0432865044
 C         -3.5898395069       -0.3221471157        0.5656721997
 C          2.0435319966        0.6001258138       -0.1481643703
 N          3.1969211598        0.8134155616       -0.7584776423
 C          4.1934433606       -0.0051001068       -0.4756996303
 C          4.0545411471       -1.0563238958        0.4215976900
 C          2.8053294614       -1.1916387872        1.0101235820
 N          1.8057017103       -0.3737045424        0.7298256691
 H         -0.0149551433        0.6142192033        1.0717738383
 H         -1.7879643354        2.1244970047        1.1515580713
 H         -1.6634367828        1.3410262631       -1.6653633095
 H         -3.0978237174        1.9355476702       -0.8024997052
 H         -0.8160377910       -0.9313959543       -1.2581176256
 H         -1.2254304524       -3.1995324352       -0.3955628147
 H         -3.1592196344       -3.6325905064        1.0759792690
 H         -4.6760549007       -1.7845844759        1.6842577522
 H         -4.2545935194        0.4870410109        0.8357253567
 H          5.1266361639        0.1925957702       -0.9871763855
 H          4.8663374696       -1.7274646028        0.6479736245
 H          2.5875952041       -1.9752503526        1.7254681358
  29
        -47.51644985
 O         -0.1417266390        0.5185412993       -1.9728770571
 C          0.3857667158        0.8802456468       -0.9512062487
 N         -0.0218347241        1.9180908123       -0.1719920763
 N         -1.3219355230        2.4155544880       -0.2900009009
 C         -2.2187476125        1.8464039129        0.7152730685
 C         -2.2019145643        0.3486631597        0.5674753710
 C         -2.8617494706       -0.2515813123       -0.4961902863
 C         -2.7693428560       -1.6162520595       -0.6937805489
 C         -2.0137400753       -2.3947269304        0.1670372895
 C         -1.3533036556       -1.8033835693        1.2289382150
 C         -1.4450451441       -0.4365811042        1.4260948524
 C          1.6258389428        0.2282912456       -0.3870995632
 N          1.9523292138        0.5253701171        0.8697475005
 C          3.0026257341       -0.0912743588        1.3833756555
 C          3.7438800709       -1.0122634988        0.6576750374
 C          3.3220911641       -1.2387856585       -0.6461366433
 N          2.2730758973       -0.6252275449       -1.1616130924
 H          0.4551325675        1.9978040525        0.7277982737
 H         -1.3062909702        3.4318137922       -0.2379100689
 H         -3.2139788117        2.2476405276        0.5138303276
 H         -1.9203821282        2.1259866264        1.7408893329
 H         -3.4288258040        0.3613374830       -1.1792116025
 H         -3.2785563458       -2.0741703827       -1.5283148604
 H         -1.9347546631       -3.4600465466        0.0072408428
 H         -0.7575973421       -2.4041735527        1.9015608431
 H         -0.9179469468        0.0215294366        2.2526472384
 H          3.2482180018        0.1655376015        2.4067110131
 H          4.5960462531       -1.5177617053        1.0809084966
 H          3.8345686189       -1.9306155457       -1.3022860152
  29
        -47.51644630
 O          0.0730829684        1.1942813130        1.6375823439
 C          0.4715002836        1.1526877355        0.5007312767
 N         -0.0514283553        1.8412931670       -0.5494012842
 N         -1.3427009955        2.3680944706       -0.4705633310
 C         -2.3336925208        1.4828406606       -1.0815263988
 C         -2.2672398378        0.1499798405       -0.3856992821
 C         -2.8071221440        0.0014425894        0.8844894611
 C         -2.6650369645       -1.1913088151        1.5679152963
 C         -1.9782349894       -2.2465348816        0.9911519826
 C         -1.4370103927       -2.1055785961       -0.2740206469
 C         -1.5789396052       -0.9108863336       -0.9581196776
 C          1.6603201328        0.3252787336        0.0723702520
 N          2.4162846044       -0.1956663778        1.0233813041
 C          3.4208624728       -0.9654405602        0.6480342686
 C          3.6885537478       -1.2317133823       -0.6886027391
 C          2.8420820847       -0.6297472527       -1.6080762142
 N          1.8356751411        0.1418892822       -1.2353686451
 H          0.3184747214        1.5811862677       -1.4653851627
 H         -1.3619105557        3.2926676876       -0.8954352540
 H         -2.1581868486        1.3512803559       -2.1636849994
 H         -3.3087251546        1.9516099109       -0.9348462896
 H         -3.3205371061        0.8334577656        1.3405721635
 H         -3.0809766561       -1.2959680221        2.5586434614
 H         -1.8592183200       -3.1753597673        1.5294250602
 H         -0.8942257727       -2.9228524848       -0.7274888370
 H         -1.1440503589       -0.8032534910       -1.9431378907
 H          4.0245560756       -1.3774385868        1.4465348936
 H          4.5041354841       -1.8654552381       -0.9951160190
 H          2.9643421752       -0.7647061707       -2.6759372993
