  9
        -11.39433938
 C         -1.2751005191       -0.2515089141        0.0157779986
 C          0.0145619487        0.5610767138       -0.0327646983
 O          1.1687243966       -0.2414514128        0.0563158139
 H         -1.3032689522       -0.8523947505        0.9216157041
 H         -2.1346154806        0.4129721696        0.0067627807
 H         -1.3401918721       -0.9162977679       -0.8448093835
 H          0.0683066314        1.2380900267        0.8227635345
 H          0.0398431182        1.1637996763       -0.9532713756
 H          1.1390652417       -0.9023693968       -0.6445669320
  9
        -11.39186743
 C         -1.2591341688       -0.2891840399        0.0037139500
 C         -0.0038380002        0.5674311307       -0.0492253928
 O          1.1209668010       -0.2821760578        0.0434361857
 H         -1.2846783783       -0.8461038707        0.9361916728
 H         -2.1430763115        0.3385201585       -0.0655796622
 H         -1.2544630553       -0.9972739361       -0.8201363948
 H         -0.0077989431        1.2868550167        0.7831028109
 H          0.0227710970        1.1337601104       -0.9921260216
 H          1.9234567534        0.2477004771        0.0113889419
